*Heading
** Job name: WellClosureJob Model name: MyFirstModel
** Generated by: Abaqus/CAE 2024
*Preprint, echo=NO, model=NO, history=NO, contact=NO
**
** PARTS
**
*Part, name=FLUID
*End Part
**  
*Part, name=PIPE
*End Part
**  
*Part, name=ROCK
*End Part
**  
**
** ASSEMBLY
**
*Assembly, name=Assembly
**  
*Instance, name=FLUID_INST, part=FLUID
*Node
      1,  0.155575007,       -2600.
      2,  0.150678098,       -2600.
      3,  0.145781189,       -2600.
      4,   0.14088428,       -2600.
      5,  0.155575007,  -2639.13037
      6,  0.150678098,  -2639.13037
      7,  0.145781189,  -2639.13037
      8,   0.14088428,  -2639.13037
      9,  0.155575007,  -2678.26099
     10,  0.150678098,  -2678.26099
     11,  0.145781189,  -2678.26099
     12,   0.14088428,  -2678.26099
     13,  0.155575007,  -2717.39136
     14,  0.150678098,  -2717.39136
     15,  0.145781189,  -2717.39136
     16,   0.14088428,  -2717.39136
     17,  0.155575007,  -2756.52173
     18,  0.150678098,  -2756.52173
     19,  0.145781189,  -2756.52173
     20,   0.14088428,  -2756.52173
     21,  0.155575007,   -2795.6521
     22,  0.150678098,   -2795.6521
     23,  0.145781189,   -2795.6521
     24,   0.14088428,   -2795.6521
     25,  0.155575007,  -2834.78271
     26,  0.150678098,  -2834.78271
     27,  0.145781189,  -2834.78271
     28,   0.14088428,  -2834.78271
     29,  0.155575007,  -2873.91309
     30,  0.150678098,  -2873.91309
     31,  0.145781189,  -2873.91309
     32,   0.14088428,  -2873.91309
     33,  0.155575007,  -2913.04346
     34,  0.150678098,  -2913.04346
     35,  0.145781189,  -2913.04346
     36,   0.14088428,  -2913.04346
     37,  0.155575007,  -2952.17383
     38,  0.150678098,  -2952.17383
     39,  0.145781189,  -2952.17383
     40,   0.14088428,  -2952.17383
     41,  0.155575007,  -2991.30444
     42,  0.150678098,  -2991.30444
     43,  0.145781189,  -2991.30444
     44,   0.14088428,  -2991.30444
     45,  0.155575007,  -3030.43481
     46,  0.150678098,  -3030.43481
     47,  0.145781189,  -3030.43481
     48,   0.14088428,  -3030.43481
     49,  0.155575007,  -3069.56519
     50,  0.150678098,  -3069.56519
     51,  0.145781189,  -3069.56519
     52,   0.14088428,  -3069.56519
     53,  0.155575007,  -3108.69556
     54,  0.150678098,  -3108.69556
     55,  0.145781189,  -3108.69556
     56,   0.14088428,  -3108.69556
     57,  0.155575007,  -3147.82617
     58,  0.150678098,  -3147.82617
     59,  0.145781189,  -3147.82617
     60,   0.14088428,  -3147.82617
     61,  0.155575007,  -3186.95654
     62,  0.150678098,  -3186.95654
     63,  0.145781189,  -3186.95654
     64,   0.14088428,  -3186.95654
     65,  0.155575007,  -3226.08691
     66,  0.150678098,  -3226.08691
     67,  0.145781189,  -3226.08691
     68,   0.14088428,  -3226.08691
     69,  0.155575007,  -3265.21729
     70,  0.150678098,  -3265.21729
     71,  0.145781189,  -3265.21729
     72,   0.14088428,  -3265.21729
     73,  0.155575007,   -3304.3479
     74,  0.150678098,   -3304.3479
     75,  0.145781189,   -3304.3479
     76,   0.14088428,   -3304.3479
     77,  0.155575007,  -3343.47827
     78,  0.150678098,  -3343.47827
     79,  0.145781189,  -3343.47827
     80,   0.14088428,  -3343.47827
     81,  0.155575007,  -3382.60864
     82,  0.150678098,  -3382.60864
     83,  0.145781189,  -3382.60864
     84,   0.14088428,  -3382.60864
     85,  0.155575007,  -3421.73901
     86,  0.150678098,  -3421.73901
     87,  0.145781189,  -3421.73901
     88,   0.14088428,  -3421.73901
     89,  0.155575007,  -3460.86963
     90,  0.150678098,  -3460.86963
     91,  0.145781189,  -3460.86963
     92,   0.14088428,  -3460.86963
     93,  0.155575007,       -3500.
     94,  0.150678098,       -3500.
     95,  0.145781189,       -3500.
     96,   0.14088428,       -3500.
*Element, type=CAX4
 1,  1,  2,  6,  5
 2,  2,  3,  7,  6
 3,  3,  4,  8,  7
 4,  5,  6, 10,  9
 5,  6,  7, 11, 10
 6,  7,  8, 12, 11
 7,  9, 10, 14, 13
 8, 10, 11, 15, 14
 9, 11, 12, 16, 15
10, 13, 14, 18, 17
11, 14, 15, 19, 18
12, 15, 16, 20, 19
13, 17, 18, 22, 21
14, 18, 19, 23, 22
15, 19, 20, 24, 23
16, 21, 22, 26, 25
17, 22, 23, 27, 26
18, 23, 24, 28, 27
19, 25, 26, 30, 29
20, 26, 27, 31, 30
21, 27, 28, 32, 31
22, 29, 30, 34, 33
23, 30, 31, 35, 34
24, 31, 32, 36, 35
25, 33, 34, 38, 37
26, 34, 35, 39, 38
27, 35, 36, 40, 39
28, 37, 38, 42, 41
29, 38, 39, 43, 42
30, 39, 40, 44, 43
31, 41, 42, 46, 45
32, 42, 43, 47, 46
33, 43, 44, 48, 47
34, 45, 46, 50, 49
35, 46, 47, 51, 50
36, 47, 48, 52, 51
37, 49, 50, 54, 53
38, 50, 51, 55, 54
39, 51, 52, 56, 55
40, 53, 54, 58, 57
41, 54, 55, 59, 58
42, 55, 56, 60, 59
43, 57, 58, 62, 61
44, 58, 59, 63, 62
45, 59, 60, 64, 63
46, 61, 62, 66, 65
47, 62, 63, 67, 66
48, 63, 64, 68, 67
49, 65, 66, 70, 69
50, 66, 67, 71, 70
51, 67, 68, 72, 71
52, 69, 70, 74, 73
53, 70, 71, 75, 74
54, 71, 72, 76, 75
55, 73, 74, 78, 77
56, 74, 75, 79, 78
57, 75, 76, 80, 79
58, 77, 78, 82, 81
59, 78, 79, 83, 82
60, 79, 80, 84, 83
61, 81, 82, 86, 85
62, 82, 83, 87, 86
63, 83, 84, 88, 87
64, 85, 86, 90, 89
65, 86, 87, 91, 90
66, 87, 88, 92, 91
67, 89, 90, 94, 93
68, 90, 91, 95, 94
69, 91, 92, 96, 95
*Nset, nset=FASEI_FLUIDO, generate
  1,  96,   1
*Elset, elset=FASEI_FLUIDO, generate
  1,  69,   1
*Nset, nset=FASEI_FLUIDO_BASE, generate
 93,  96,   1
*Elset, elset=FASEI_FLUIDO_BASE, generate
 67,  69,   1
*Nset, nset=FASEI_FLUIDO_ID, generate
  4,  96,   4
*Elset, elset=FASEI_FLUIDO_ID, generate
  3,  69,   3
*Nset, nset=FASEI_FLUIDO_OD, generate
  1,  93,   4
*Elset, elset=FASEI_FLUIDO_OD, generate
  1,  67,   3
*Nset, nset=FASEI_FLUIDO_TOP, generate
 1,  4,  1
*Elset, elset=FASEI_FLUIDO_TOP, generate
 1,  3,  1
*Nset, nset=FASEI_ANNULAR, generate
  1,  96,   1
*Elset, elset=FASEI_ANNULAR, generate
  1,  69,   1
*Nset, nset=FASEI_ANNULAR_BASE, generate
 93,  96,   1
*Elset, elset=FASEI_ANNULAR_BASE, generate
 67,  69,   1
*Nset, nset=FASEI_ANNULAR_ID, generate
  4,  96,   4
*Elset, elset=FASEI_ANNULAR_ID, generate
  3,  69,   3
*Nset, nset=FASEI_ANNULAR_OD, generate
  1,  93,   4
*Elset, elset=FASEI_ANNULAR_OD, generate
  1,  67,   3
*Nset, nset=FASEI_ANNULAR_TOP, generate
 1,  4,  1
*Elset, elset=FASEI_ANNULAR_TOP, generate
 1,  3,  1
*Nset, nset=FASEI_ANNULAR_TT
  1,  2,  3,  4, 93, 94, 95, 96
*Elset, elset=FASEI_ANNULAR_TT
  1,  2,  3, 67, 68, 69
** Section: FLUID_Section
*Solid Section, elset=FASEI_FLUIDO, material=FLUID
1.,
*End Instance
**  
*Instance, name=PIPE_INST, part=PIPE
*Node
      1,   0.14088428,       -2600.
      2,   0.13559261,       -2600.
      3,  0.130300939,       -2600.
      4,  0.125009269,       -2600.
      5,   0.14088428,  -2639.13037
      6,   0.13559261,  -2639.13037
      7,  0.130300939,  -2639.13037
      8,  0.125009269,  -2639.13037
      9,   0.14088428,  -2678.26099
     10,   0.13559261,  -2678.26099
     11,  0.130300939,  -2678.26099
     12,  0.125009269,  -2678.26099
     13,   0.14088428,  -2717.39136
     14,   0.13559261,  -2717.39136
     15,  0.130300939,  -2717.39136
     16,  0.125009269,  -2717.39136
     17,   0.14088428,  -2756.52173
     18,   0.13559261,  -2756.52173
     19,  0.130300939,  -2756.52173
     20,  0.125009269,  -2756.52173
     21,   0.14088428,   -2795.6521
     22,   0.13559261,   -2795.6521
     23,  0.130300939,   -2795.6521
     24,  0.125009269,   -2795.6521
     25,   0.14088428,  -2834.78271
     26,   0.13559261,  -2834.78271
     27,  0.130300939,  -2834.78271
     28,  0.125009269,  -2834.78271
     29,   0.14088428,  -2873.91309
     30,   0.13559261,  -2873.91309
     31,  0.130300939,  -2873.91309
     32,  0.125009269,  -2873.91309
     33,   0.14088428,  -2913.04346
     34,   0.13559261,  -2913.04346
     35,  0.130300939,  -2913.04346
     36,  0.125009269,  -2913.04346
     37,   0.14088428,  -2952.17383
     38,   0.13559261,  -2952.17383
     39,  0.130300939,  -2952.17383
     40,  0.125009269,  -2952.17383
     41,   0.14088428,  -2991.30444
     42,   0.13559261,  -2991.30444
     43,  0.130300939,  -2991.30444
     44,  0.125009269,  -2991.30444
     45,   0.14088428,  -3030.43481
     46,   0.13559261,  -3030.43481
     47,  0.130300939,  -3030.43481
     48,  0.125009269,  -3030.43481
     49,   0.14088428,  -3069.56519
     50,   0.13559261,  -3069.56519
     51,  0.130300939,  -3069.56519
     52,  0.125009269,  -3069.56519
     53,   0.14088428,  -3108.69556
     54,   0.13559261,  -3108.69556
     55,  0.130300939,  -3108.69556
     56,  0.125009269,  -3108.69556
     57,   0.14088428,  -3147.82617
     58,   0.13559261,  -3147.82617
     59,  0.130300939,  -3147.82617
     60,  0.125009269,  -3147.82617
     61,   0.14088428,  -3186.95654
     62,   0.13559261,  -3186.95654
     63,  0.130300939,  -3186.95654
     64,  0.125009269,  -3186.95654
     65,   0.14088428,  -3226.08691
     66,   0.13559261,  -3226.08691
     67,  0.130300939,  -3226.08691
     68,  0.125009269,  -3226.08691
     69,   0.14088428,  -3265.21729
     70,   0.13559261,  -3265.21729
     71,  0.130300939,  -3265.21729
     72,  0.125009269,  -3265.21729
     73,   0.14088428,   -3304.3479
     74,   0.13559261,   -3304.3479
     75,  0.130300939,   -3304.3479
     76,  0.125009269,   -3304.3479
     77,   0.14088428,  -3343.47827
     78,   0.13559261,  -3343.47827
     79,  0.130300939,  -3343.47827
     80,  0.125009269,  -3343.47827
     81,   0.14088428,  -3382.60864
     82,   0.13559261,  -3382.60864
     83,  0.130300939,  -3382.60864
     84,  0.125009269,  -3382.60864
     85,   0.14088428,  -3421.73901
     86,   0.13559261,  -3421.73901
     87,  0.130300939,  -3421.73901
     88,  0.125009269,  -3421.73901
     89,   0.14088428,  -3460.86963
     90,   0.13559261,  -3460.86963
     91,  0.130300939,  -3460.86963
     92,  0.125009269,  -3460.86963
     93,   0.14088428,       -3500.
     94,   0.13559261,       -3500.
     95,  0.130300939,       -3500.
     96,  0.125009269,       -3500.
*Element, type=CAX4
 1,  1,  2,  6,  5
 2,  2,  3,  7,  6
 3,  3,  4,  8,  7
 4,  5,  6, 10,  9
 5,  6,  7, 11, 10
 6,  7,  8, 12, 11
 7,  9, 10, 14, 13
 8, 10, 11, 15, 14
 9, 11, 12, 16, 15
10, 13, 14, 18, 17
11, 14, 15, 19, 18
12, 15, 16, 20, 19
13, 17, 18, 22, 21
14, 18, 19, 23, 22
15, 19, 20, 24, 23
16, 21, 22, 26, 25
17, 22, 23, 27, 26
18, 23, 24, 28, 27
19, 25, 26, 30, 29
20, 26, 27, 31, 30
21, 27, 28, 32, 31
22, 29, 30, 34, 33
23, 30, 31, 35, 34
24, 31, 32, 36, 35
25, 33, 34, 38, 37
26, 34, 35, 39, 38
27, 35, 36, 40, 39
28, 37, 38, 42, 41
29, 38, 39, 43, 42
30, 39, 40, 44, 43
31, 41, 42, 46, 45
32, 42, 43, 47, 46
33, 43, 44, 48, 47
34, 45, 46, 50, 49
35, 46, 47, 51, 50
36, 47, 48, 52, 51
37, 49, 50, 54, 53
38, 50, 51, 55, 54
39, 51, 52, 56, 55
40, 53, 54, 58, 57
41, 54, 55, 59, 58
42, 55, 56, 60, 59
43, 57, 58, 62, 61
44, 58, 59, 63, 62
45, 59, 60, 64, 63
46, 61, 62, 66, 65
47, 62, 63, 67, 66
48, 63, 64, 68, 67
49, 65, 66, 70, 69
50, 66, 67, 71, 70
51, 67, 68, 72, 71
52, 69, 70, 74, 73
53, 70, 71, 75, 74
54, 71, 72, 76, 75
55, 73, 74, 78, 77
56, 74, 75, 79, 78
57, 75, 76, 80, 79
58, 77, 78, 82, 81
59, 78, 79, 83, 82
60, 79, 80, 84, 83
61, 81, 82, 86, 85
62, 82, 83, 87, 86
63, 83, 84, 88, 87
64, 85, 86, 90, 89
65, 86, 87, 91, 90
66, 87, 88, 92, 91
67, 89, 90, 94, 93
68, 90, 91, 95, 94
69, 91, 92, 96, 95
*Nset, nset=FASEI_REV, generate
  1,  96,   1
*Elset, elset=FASEI_REV, generate
  1,  69,   1
*Nset, nset=FASEI_REV_ABOVE_TOC, generate
  1,  96,   1
*Elset, elset=FASEI_REV_ABOVE_TOC, generate
  1,  69,   1
*Nset, nset=FASEI_REV_BASE, generate
 93,  96,   1
*Elset, elset=FASEI_REV_BASE, generate
 67,  69,   1
*Nset, nset=FASEI_REV_ID, generate
  4,  96,   4
*Elset, elset=FASEI_REV_ID, generate
  3,  69,   3
*Nset, nset=FASEI_REV_OD, generate
  1,  93,   4
*Elset, elset=FASEI_REV_OD, generate
  1,  67,   3
*Nset, nset=FASEI_REV_TOP, generate
 1,  4,  1
*Elset, elset=FASEI_REV_TOP, generate
 1,  3,  1
*Nset, nset=FASEI_REV_TT
  1,  2,  3,  4, 93, 94, 95, 96
*Elset, elset=FASEI_REV_TT
  1,  2,  3, 67, 68, 69
** Section: STEEL_Section
*Solid Section, elset=FASEI_REV, material=STEEL
1.,
*End Instance
**  
*Instance, name=ROCK_INST, part=ROCK
*Node
      1,   12.1555748,       -2600.
      2,   9.15060329,       -2600.
      3,   6.89736795,       -2600.
      4,   5.20781231,       -2600.
      5,   3.94092321,       -2600.
      6,   2.99096465,       -2600.
      7,   2.27865171,       -2600.
      8,   1.74453425,       -2600.
      9,   1.34403396,       -2600.
     10,   1.04372454,       -2600.
     11,  0.818541765,       -2600.
     12,  0.649691761,       -2600.
     13,  0.523082018,       -2600.
     14,  0.428145498,       -2600.
     15,  0.356958717,       -2600.
     16,  0.303580344,       -2600.
     17,  0.263555348,       -2600.
     18,  0.233543172,       -2600.
     19,  0.211038962,       -2600.
     20,  0.194164515,       -2600.
     21,  0.181511447,       -2600.
     22,  0.172023728,       -2600.
     23,  0.164909497,       -2600.
     24,     0.159575,       -2600.
     25,  0.155575007,       -2600.
     26,   12.1555748,  -2639.13037
     27,   9.15060329,  -2639.13037
     28,   6.89736795,  -2639.13037
     29,   5.20781231,  -2639.13037
     30,   3.94092321,  -2639.13037
     31,   2.99096465,  -2639.13037
     32,   2.27865171,  -2639.13037
     33,   1.74453425,  -2639.13037
     34,   1.34403396,  -2639.13037
     35,   1.04372454,  -2639.13037
     36,  0.818541765,  -2639.13037
     37,  0.649691761,  -2639.13037
     38,  0.523082018,  -2639.13037
     39,  0.428145498,  -2639.13037
     40,  0.356958717,  -2639.13037
     41,  0.303580344,  -2639.13037
     42,  0.263555348,  -2639.13037
     43,  0.233543172,  -2639.13037
     44,  0.211038962,  -2639.13037
     45,  0.194164515,  -2639.13037
     46,  0.181511447,  -2639.13037
     47,  0.172023728,  -2639.13037
     48,  0.164909497,  -2639.13037
     49,     0.159575,  -2639.13037
     50,  0.155575007,  -2639.13037
     51,   12.1555748,  -2678.26099
     52,   9.15060329,  -2678.26099
     53,   6.89736795,  -2678.26099
     54,   5.20781231,  -2678.26099
     55,   3.94092321,  -2678.26099
     56,   2.99096465,  -2678.26099
     57,   2.27865171,  -2678.26099
     58,   1.74453425,  -2678.26099
     59,   1.34403396,  -2678.26099
     60,   1.04372454,  -2678.26099
     61,  0.818541765,  -2678.26099
     62,  0.649691761,  -2678.26099
     63,  0.523082018,  -2678.26099
     64,  0.428145498,  -2678.26099
     65,  0.356958717,  -2678.26099
     66,  0.303580344,  -2678.26099
     67,  0.263555348,  -2678.26099
     68,  0.233543172,  -2678.26099
     69,  0.211038962,  -2678.26099
     70,  0.194164515,  -2678.26099
     71,  0.181511447,  -2678.26099
     72,  0.172023728,  -2678.26099
     73,  0.164909497,  -2678.26099
     74,     0.159575,  -2678.26099
     75,  0.155575007,  -2678.26099
     76,   12.1555748,  -2717.39136
     77,   9.15060329,  -2717.39136
     78,   6.89736795,  -2717.39136
     79,   5.20781231,  -2717.39136
     80,   3.94092321,  -2717.39136
     81,   2.99096465,  -2717.39136
     82,   2.27865171,  -2717.39136
     83,   1.74453425,  -2717.39136
     84,   1.34403396,  -2717.39136
     85,   1.04372454,  -2717.39136
     86,  0.818541765,  -2717.39136
     87,  0.649691761,  -2717.39136
     88,  0.523082018,  -2717.39136
     89,  0.428145498,  -2717.39136
     90,  0.356958717,  -2717.39136
     91,  0.303580344,  -2717.39136
     92,  0.263555348,  -2717.39136
     93,  0.233543172,  -2717.39136
     94,  0.211038962,  -2717.39136
     95,  0.194164515,  -2717.39136
     96,  0.181511447,  -2717.39136
     97,  0.172023728,  -2717.39136
     98,  0.164909497,  -2717.39136
     99,     0.159575,  -2717.39136
    100,  0.155575007,  -2717.39136
    101,   12.1555748,  -2756.52173
    102,   9.15060329,  -2756.52173
    103,   6.89736795,  -2756.52173
    104,   5.20781231,  -2756.52173
    105,   3.94092321,  -2756.52173
    106,   2.99096465,  -2756.52173
    107,   2.27865171,  -2756.52173
    108,   1.74453425,  -2756.52173
    109,   1.34403396,  -2756.52173
    110,   1.04372454,  -2756.52173
    111,  0.818541765,  -2756.52173
    112,  0.649691761,  -2756.52173
    113,  0.523082018,  -2756.52173
    114,  0.428145498,  -2756.52173
    115,  0.356958717,  -2756.52173
    116,  0.303580344,  -2756.52173
    117,  0.263555348,  -2756.52173
    118,  0.233543172,  -2756.52173
    119,  0.211038962,  -2756.52173
    120,  0.194164515,  -2756.52173
    121,  0.181511447,  -2756.52173
    122,  0.172023728,  -2756.52173
    123,  0.164909497,  -2756.52173
    124,     0.159575,  -2756.52173
    125,  0.155575007,  -2756.52173
    126,   12.1555748,   -2795.6521
    127,   9.15060329,   -2795.6521
    128,   6.89736795,   -2795.6521
    129,   5.20781231,   -2795.6521
    130,   3.94092321,   -2795.6521
    131,   2.99096465,   -2795.6521
    132,   2.27865171,   -2795.6521
    133,   1.74453425,   -2795.6521
    134,   1.34403396,   -2795.6521
    135,   1.04372454,   -2795.6521
    136,  0.818541765,   -2795.6521
    137,  0.649691761,   -2795.6521
    138,  0.523082018,   -2795.6521
    139,  0.428145498,   -2795.6521
    140,  0.356958717,   -2795.6521
    141,  0.303580344,   -2795.6521
    142,  0.263555348,   -2795.6521
    143,  0.233543172,   -2795.6521
    144,  0.211038962,   -2795.6521
    145,  0.194164515,   -2795.6521
    146,  0.181511447,   -2795.6521
    147,  0.172023728,   -2795.6521
    148,  0.164909497,   -2795.6521
    149,     0.159575,   -2795.6521
    150,  0.155575007,   -2795.6521
    151,   12.1555748,  -2834.78271
    152,   9.15060329,  -2834.78271
    153,   6.89736795,  -2834.78271
    154,   5.20781231,  -2834.78271
    155,   3.94092321,  -2834.78271
    156,   2.99096465,  -2834.78271
    157,   2.27865171,  -2834.78271
    158,   1.74453425,  -2834.78271
    159,   1.34403396,  -2834.78271
    160,   1.04372454,  -2834.78271
    161,  0.818541765,  -2834.78271
    162,  0.649691761,  -2834.78271
    163,  0.523082018,  -2834.78271
    164,  0.428145498,  -2834.78271
    165,  0.356958717,  -2834.78271
    166,  0.303580344,  -2834.78271
    167,  0.263555348,  -2834.78271
    168,  0.233543172,  -2834.78271
    169,  0.211038962,  -2834.78271
    170,  0.194164515,  -2834.78271
    171,  0.181511447,  -2834.78271
    172,  0.172023728,  -2834.78271
    173,  0.164909497,  -2834.78271
    174,     0.159575,  -2834.78271
    175,  0.155575007,  -2834.78271
    176,   12.1555748,  -2873.91309
    177,   9.15060329,  -2873.91309
    178,   6.89736795,  -2873.91309
    179,   5.20781231,  -2873.91309
    180,   3.94092321,  -2873.91309
    181,   2.99096465,  -2873.91309
    182,   2.27865171,  -2873.91309
    183,   1.74453425,  -2873.91309
    184,   1.34403396,  -2873.91309
    185,   1.04372454,  -2873.91309
    186,  0.818541765,  -2873.91309
    187,  0.649691761,  -2873.91309
    188,  0.523082018,  -2873.91309
    189,  0.428145498,  -2873.91309
    190,  0.356958717,  -2873.91309
    191,  0.303580344,  -2873.91309
    192,  0.263555348,  -2873.91309
    193,  0.233543172,  -2873.91309
    194,  0.211038962,  -2873.91309
    195,  0.194164515,  -2873.91309
    196,  0.181511447,  -2873.91309
    197,  0.172023728,  -2873.91309
    198,  0.164909497,  -2873.91309
    199,     0.159575,  -2873.91309
    200,  0.155575007,  -2873.91309
    201,   12.1555748,  -2913.04346
    202,   9.15060329,  -2913.04346
    203,   6.89736795,  -2913.04346
    204,   5.20781231,  -2913.04346
    205,   3.94092321,  -2913.04346
    206,   2.99096465,  -2913.04346
    207,   2.27865171,  -2913.04346
    208,   1.74453425,  -2913.04346
    209,   1.34403396,  -2913.04346
    210,   1.04372454,  -2913.04346
    211,  0.818541765,  -2913.04346
    212,  0.649691761,  -2913.04346
    213,  0.523082018,  -2913.04346
    214,  0.428145498,  -2913.04346
    215,  0.356958717,  -2913.04346
    216,  0.303580344,  -2913.04346
    217,  0.263555348,  -2913.04346
    218,  0.233543172,  -2913.04346
    219,  0.211038962,  -2913.04346
    220,  0.194164515,  -2913.04346
    221,  0.181511447,  -2913.04346
    222,  0.172023728,  -2913.04346
    223,  0.164909497,  -2913.04346
    224,     0.159575,  -2913.04346
    225,  0.155575007,  -2913.04346
    226,   12.1555748,  -2952.17383
    227,   9.15060329,  -2952.17383
    228,   6.89736795,  -2952.17383
    229,   5.20781231,  -2952.17383
    230,   3.94092321,  -2952.17383
    231,   2.99096465,  -2952.17383
    232,   2.27865171,  -2952.17383
    233,   1.74453425,  -2952.17383
    234,   1.34403396,  -2952.17383
    235,   1.04372454,  -2952.17383
    236,  0.818541765,  -2952.17383
    237,  0.649691761,  -2952.17383
    238,  0.523082018,  -2952.17383
    239,  0.428145498,  -2952.17383
    240,  0.356958717,  -2952.17383
    241,  0.303580344,  -2952.17383
    242,  0.263555348,  -2952.17383
    243,  0.233543172,  -2952.17383
    244,  0.211038962,  -2952.17383
    245,  0.194164515,  -2952.17383
    246,  0.181511447,  -2952.17383
    247,  0.172023728,  -2952.17383
    248,  0.164909497,  -2952.17383
    249,     0.159575,  -2952.17383
    250,  0.155575007,  -2952.17383
    251,   12.1555748,  -2991.30444
    252,   9.15060329,  -2991.30444
    253,   6.89736795,  -2991.30444
    254,   5.20781231,  -2991.30444
    255,   3.94092321,  -2991.30444
    256,   2.99096465,  -2991.30444
    257,   2.27865171,  -2991.30444
    258,   1.74453425,  -2991.30444
    259,   1.34403396,  -2991.30444
    260,   1.04372454,  -2991.30444
    261,  0.818541765,  -2991.30444
    262,  0.649691761,  -2991.30444
    263,  0.523082018,  -2991.30444
    264,  0.428145498,  -2991.30444
    265,  0.356958717,  -2991.30444
    266,  0.303580344,  -2991.30444
    267,  0.263555348,  -2991.30444
    268,  0.233543172,  -2991.30444
    269,  0.211038962,  -2991.30444
    270,  0.194164515,  -2991.30444
    271,  0.181511447,  -2991.30444
    272,  0.172023728,  -2991.30444
    273,  0.164909497,  -2991.30444
    274,     0.159575,  -2991.30444
    275,  0.155575007,  -2991.30444
    276,   12.1555748,  -3030.43481
    277,   9.15060329,  -3030.43481
    278,   6.89736795,  -3030.43481
    279,   5.20781231,  -3030.43481
    280,   3.94092321,  -3030.43481
    281,   2.99096465,  -3030.43481
    282,   2.27865171,  -3030.43481
    283,   1.74453425,  -3030.43481
    284,   1.34403396,  -3030.43481
    285,   1.04372454,  -3030.43481
    286,  0.818541765,  -3030.43481
    287,  0.649691761,  -3030.43481
    288,  0.523082018,  -3030.43481
    289,  0.428145498,  -3030.43481
    290,  0.356958717,  -3030.43481
    291,  0.303580344,  -3030.43481
    292,  0.263555348,  -3030.43481
    293,  0.233543172,  -3030.43481
    294,  0.211038962,  -3030.43481
    295,  0.194164515,  -3030.43481
    296,  0.181511447,  -3030.43481
    297,  0.172023728,  -3030.43481
    298,  0.164909497,  -3030.43481
    299,     0.159575,  -3030.43481
    300,  0.155575007,  -3030.43481
    301,   12.1555748,  -3069.56519
    302,   9.15060329,  -3069.56519
    303,   6.89736795,  -3069.56519
    304,   5.20781231,  -3069.56519
    305,   3.94092321,  -3069.56519
    306,   2.99096465,  -3069.56519
    307,   2.27865171,  -3069.56519
    308,   1.74453425,  -3069.56519
    309,   1.34403396,  -3069.56519
    310,   1.04372454,  -3069.56519
    311,  0.818541765,  -3069.56519
    312,  0.649691761,  -3069.56519
    313,  0.523082018,  -3069.56519
    314,  0.428145498,  -3069.56519
    315,  0.356958717,  -3069.56519
    316,  0.303580344,  -3069.56519
    317,  0.263555348,  -3069.56519
    318,  0.233543172,  -3069.56519
    319,  0.211038962,  -3069.56519
    320,  0.194164515,  -3069.56519
    321,  0.181511447,  -3069.56519
    322,  0.172023728,  -3069.56519
    323,  0.164909497,  -3069.56519
    324,     0.159575,  -3069.56519
    325,  0.155575007,  -3069.56519
    326,   12.1555748,  -3108.69556
    327,   9.15060329,  -3108.69556
    328,   6.89736795,  -3108.69556
    329,   5.20781231,  -3108.69556
    330,   3.94092321,  -3108.69556
    331,   2.99096465,  -3108.69556
    332,   2.27865171,  -3108.69556
    333,   1.74453425,  -3108.69556
    334,   1.34403396,  -3108.69556
    335,   1.04372454,  -3108.69556
    336,  0.818541765,  -3108.69556
    337,  0.649691761,  -3108.69556
    338,  0.523082018,  -3108.69556
    339,  0.428145498,  -3108.69556
    340,  0.356958717,  -3108.69556
    341,  0.303580344,  -3108.69556
    342,  0.263555348,  -3108.69556
    343,  0.233543172,  -3108.69556
    344,  0.211038962,  -3108.69556
    345,  0.194164515,  -3108.69556
    346,  0.181511447,  -3108.69556
    347,  0.172023728,  -3108.69556
    348,  0.164909497,  -3108.69556
    349,     0.159575,  -3108.69556
    350,  0.155575007,  -3108.69556
    351,   12.1555748,  -3147.82617
    352,   9.15060329,  -3147.82617
    353,   6.89736795,  -3147.82617
    354,   5.20781231,  -3147.82617
    355,   3.94092321,  -3147.82617
    356,   2.99096465,  -3147.82617
    357,   2.27865171,  -3147.82617
    358,   1.74453425,  -3147.82617
    359,   1.34403396,  -3147.82617
    360,   1.04372454,  -3147.82617
    361,  0.818541765,  -3147.82617
    362,  0.649691761,  -3147.82617
    363,  0.523082018,  -3147.82617
    364,  0.428145498,  -3147.82617
    365,  0.356958717,  -3147.82617
    366,  0.303580344,  -3147.82617
    367,  0.263555348,  -3147.82617
    368,  0.233543172,  -3147.82617
    369,  0.211038962,  -3147.82617
    370,  0.194164515,  -3147.82617
    371,  0.181511447,  -3147.82617
    372,  0.172023728,  -3147.82617
    373,  0.164909497,  -3147.82617
    374,     0.159575,  -3147.82617
    375,  0.155575007,  -3147.82617
    376,   12.1555748,  -3186.95654
    377,   9.15060329,  -3186.95654
    378,   6.89736795,  -3186.95654
    379,   5.20781231,  -3186.95654
    380,   3.94092321,  -3186.95654
    381,   2.99096465,  -3186.95654
    382,   2.27865171,  -3186.95654
    383,   1.74453425,  -3186.95654
    384,   1.34403396,  -3186.95654
    385,   1.04372454,  -3186.95654
    386,  0.818541765,  -3186.95654
    387,  0.649691761,  -3186.95654
    388,  0.523082018,  -3186.95654
    389,  0.428145498,  -3186.95654
    390,  0.356958717,  -3186.95654
    391,  0.303580344,  -3186.95654
    392,  0.263555348,  -3186.95654
    393,  0.233543172,  -3186.95654
    394,  0.211038962,  -3186.95654
    395,  0.194164515,  -3186.95654
    396,  0.181511447,  -3186.95654
    397,  0.172023728,  -3186.95654
    398,  0.164909497,  -3186.95654
    399,     0.159575,  -3186.95654
    400,  0.155575007,  -3186.95654
    401,   12.1555748,  -3226.08691
    402,   9.15060329,  -3226.08691
    403,   6.89736795,  -3226.08691
    404,   5.20781231,  -3226.08691
    405,   3.94092321,  -3226.08691
    406,   2.99096465,  -3226.08691
    407,   2.27865171,  -3226.08691
    408,   1.74453425,  -3226.08691
    409,   1.34403396,  -3226.08691
    410,   1.04372454,  -3226.08691
    411,  0.818541765,  -3226.08691
    412,  0.649691761,  -3226.08691
    413,  0.523082018,  -3226.08691
    414,  0.428145498,  -3226.08691
    415,  0.356958717,  -3226.08691
    416,  0.303580344,  -3226.08691
    417,  0.263555348,  -3226.08691
    418,  0.233543172,  -3226.08691
    419,  0.211038962,  -3226.08691
    420,  0.194164515,  -3226.08691
    421,  0.181511447,  -3226.08691
    422,  0.172023728,  -3226.08691
    423,  0.164909497,  -3226.08691
    424,     0.159575,  -3226.08691
    425,  0.155575007,  -3226.08691
    426,   12.1555748,  -3265.21729
    427,   9.15060329,  -3265.21729
    428,   6.89736795,  -3265.21729
    429,   5.20781231,  -3265.21729
    430,   3.94092321,  -3265.21729
    431,   2.99096465,  -3265.21729
    432,   2.27865171,  -3265.21729
    433,   1.74453425,  -3265.21729
    434,   1.34403396,  -3265.21729
    435,   1.04372454,  -3265.21729
    436,  0.818541765,  -3265.21729
    437,  0.649691761,  -3265.21729
    438,  0.523082018,  -3265.21729
    439,  0.428145498,  -3265.21729
    440,  0.356958717,  -3265.21729
    441,  0.303580344,  -3265.21729
    442,  0.263555348,  -3265.21729
    443,  0.233543172,  -3265.21729
    444,  0.211038962,  -3265.21729
    445,  0.194164515,  -3265.21729
    446,  0.181511447,  -3265.21729
    447,  0.172023728,  -3265.21729
    448,  0.164909497,  -3265.21729
    449,     0.159575,  -3265.21729
    450,  0.155575007,  -3265.21729
    451,   12.1555748,   -3304.3479
    452,   9.15060329,   -3304.3479
    453,   6.89736795,   -3304.3479
    454,   5.20781231,   -3304.3479
    455,   3.94092321,   -3304.3479
    456,   2.99096465,   -3304.3479
    457,   2.27865171,   -3304.3479
    458,   1.74453425,   -3304.3479
    459,   1.34403396,   -3304.3479
    460,   1.04372454,   -3304.3479
    461,  0.818541765,   -3304.3479
    462,  0.649691761,   -3304.3479
    463,  0.523082018,   -3304.3479
    464,  0.428145498,   -3304.3479
    465,  0.356958717,   -3304.3479
    466,  0.303580344,   -3304.3479
    467,  0.263555348,   -3304.3479
    468,  0.233543172,   -3304.3479
    469,  0.211038962,   -3304.3479
    470,  0.194164515,   -3304.3479
    471,  0.181511447,   -3304.3479
    472,  0.172023728,   -3304.3479
    473,  0.164909497,   -3304.3479
    474,     0.159575,   -3304.3479
    475,  0.155575007,   -3304.3479
    476,   12.1555748,  -3343.47827
    477,   9.15060329,  -3343.47827
    478,   6.89736795,  -3343.47827
    479,   5.20781231,  -3343.47827
    480,   3.94092321,  -3343.47827
    481,   2.99096465,  -3343.47827
    482,   2.27865171,  -3343.47827
    483,   1.74453425,  -3343.47827
    484,   1.34403396,  -3343.47827
    485,   1.04372454,  -3343.47827
    486,  0.818541765,  -3343.47827
    487,  0.649691761,  -3343.47827
    488,  0.523082018,  -3343.47827
    489,  0.428145498,  -3343.47827
    490,  0.356958717,  -3343.47827
    491,  0.303580344,  -3343.47827
    492,  0.263555348,  -3343.47827
    493,  0.233543172,  -3343.47827
    494,  0.211038962,  -3343.47827
    495,  0.194164515,  -3343.47827
    496,  0.181511447,  -3343.47827
    497,  0.172023728,  -3343.47827
    498,  0.164909497,  -3343.47827
    499,     0.159575,  -3343.47827
    500,  0.155575007,  -3343.47827
    501,   12.1555748,  -3382.60864
    502,   9.15060329,  -3382.60864
    503,   6.89736795,  -3382.60864
    504,   5.20781231,  -3382.60864
    505,   3.94092321,  -3382.60864
    506,   2.99096465,  -3382.60864
    507,   2.27865171,  -3382.60864
    508,   1.74453425,  -3382.60864
    509,   1.34403396,  -3382.60864
    510,   1.04372454,  -3382.60864
    511,  0.818541765,  -3382.60864
    512,  0.649691761,  -3382.60864
    513,  0.523082018,  -3382.60864
    514,  0.428145498,  -3382.60864
    515,  0.356958717,  -3382.60864
    516,  0.303580344,  -3382.60864
    517,  0.263555348,  -3382.60864
    518,  0.233543172,  -3382.60864
    519,  0.211038962,  -3382.60864
    520,  0.194164515,  -3382.60864
    521,  0.181511447,  -3382.60864
    522,  0.172023728,  -3382.60864
    523,  0.164909497,  -3382.60864
    524,     0.159575,  -3382.60864
    525,  0.155575007,  -3382.60864
    526,   12.1555748,  -3421.73901
    527,   9.15060329,  -3421.73901
    528,   6.89736795,  -3421.73901
    529,   5.20781231,  -3421.73901
    530,   3.94092321,  -3421.73901
    531,   2.99096465,  -3421.73901
    532,   2.27865171,  -3421.73901
    533,   1.74453425,  -3421.73901
    534,   1.34403396,  -3421.73901
    535,   1.04372454,  -3421.73901
    536,  0.818541765,  -3421.73901
    537,  0.649691761,  -3421.73901
    538,  0.523082018,  -3421.73901
    539,  0.428145498,  -3421.73901
    540,  0.356958717,  -3421.73901
    541,  0.303580344,  -3421.73901
    542,  0.263555348,  -3421.73901
    543,  0.233543172,  -3421.73901
    544,  0.211038962,  -3421.73901
    545,  0.194164515,  -3421.73901
    546,  0.181511447,  -3421.73901
    547,  0.172023728,  -3421.73901
    548,  0.164909497,  -3421.73901
    549,     0.159575,  -3421.73901
    550,  0.155575007,  -3421.73901
    551,   12.1555748,  -3460.86963
    552,   9.15060329,  -3460.86963
    553,   6.89736795,  -3460.86963
    554,   5.20781231,  -3460.86963
    555,   3.94092321,  -3460.86963
    556,   2.99096465,  -3460.86963
    557,   2.27865171,  -3460.86963
    558,   1.74453425,  -3460.86963
    559,   1.34403396,  -3460.86963
    560,   1.04372454,  -3460.86963
    561,  0.818541765,  -3460.86963
    562,  0.649691761,  -3460.86963
    563,  0.523082018,  -3460.86963
    564,  0.428145498,  -3460.86963
    565,  0.356958717,  -3460.86963
    566,  0.303580344,  -3460.86963
    567,  0.263555348,  -3460.86963
    568,  0.233543172,  -3460.86963
    569,  0.211038962,  -3460.86963
    570,  0.194164515,  -3460.86963
    571,  0.181511447,  -3460.86963
    572,  0.172023728,  -3460.86963
    573,  0.164909497,  -3460.86963
    574,     0.159575,  -3460.86963
    575,  0.155575007,  -3460.86963
    576,   12.1555748,       -3500.
    577,   9.15060329,       -3500.
    578,   6.89736795,       -3500.
    579,   5.20781231,       -3500.
    580,   3.94092321,       -3500.
    581,   2.99096465,       -3500.
    582,   2.27865171,       -3500.
    583,   1.74453425,       -3500.
    584,   1.34403396,       -3500.
    585,   1.04372454,       -3500.
    586,  0.818541765,       -3500.
    587,  0.649691761,       -3500.
    588,  0.523082018,       -3500.
    589,  0.428145498,       -3500.
    590,  0.356958717,       -3500.
    591,  0.303580344,       -3500.
    592,  0.263555348,       -3500.
    593,  0.233543172,       -3500.
    594,  0.211038962,       -3500.
    595,  0.194164515,       -3500.
    596,  0.181511447,       -3500.
    597,  0.172023728,       -3500.
    598,  0.164909497,       -3500.
    599,     0.159575,       -3500.
    600,  0.155575007,       -3500.
*Element, type=CAX4
  1,   1,   2,  27,  26
  2,   2,   3,  28,  27
  3,   3,   4,  29,  28
  4,   4,   5,  30,  29
  5,   5,   6,  31,  30
  6,   6,   7,  32,  31
  7,   7,   8,  33,  32
  8,   8,   9,  34,  33
  9,   9,  10,  35,  34
 10,  10,  11,  36,  35
 11,  11,  12,  37,  36
 12,  12,  13,  38,  37
 13,  13,  14,  39,  38
 14,  14,  15,  40,  39
 15,  15,  16,  41,  40
 16,  16,  17,  42,  41
 17,  17,  18,  43,  42
 18,  18,  19,  44,  43
 19,  19,  20,  45,  44
 20,  20,  21,  46,  45
 21,  21,  22,  47,  46
 22,  22,  23,  48,  47
 23,  23,  24,  49,  48
 24,  24,  25,  50,  49
 25,  26,  27,  52,  51
 26,  27,  28,  53,  52
 27,  28,  29,  54,  53
 28,  29,  30,  55,  54
 29,  30,  31,  56,  55
 30,  31,  32,  57,  56
 31,  32,  33,  58,  57
 32,  33,  34,  59,  58
 33,  34,  35,  60,  59
 34,  35,  36,  61,  60
 35,  36,  37,  62,  61
 36,  37,  38,  63,  62
 37,  38,  39,  64,  63
 38,  39,  40,  65,  64
 39,  40,  41,  66,  65
 40,  41,  42,  67,  66
 41,  42,  43,  68,  67
 42,  43,  44,  69,  68
 43,  44,  45,  70,  69
 44,  45,  46,  71,  70
 45,  46,  47,  72,  71
 46,  47,  48,  73,  72
 47,  48,  49,  74,  73
 48,  49,  50,  75,  74
 49,  51,  52,  77,  76
 50,  52,  53,  78,  77
 51,  53,  54,  79,  78
 52,  54,  55,  80,  79
 53,  55,  56,  81,  80
 54,  56,  57,  82,  81
 55,  57,  58,  83,  82
 56,  58,  59,  84,  83
 57,  59,  60,  85,  84
 58,  60,  61,  86,  85
 59,  61,  62,  87,  86
 60,  62,  63,  88,  87
 61,  63,  64,  89,  88
 62,  64,  65,  90,  89
 63,  65,  66,  91,  90
 64,  66,  67,  92,  91
 65,  67,  68,  93,  92
 66,  68,  69,  94,  93
 67,  69,  70,  95,  94
 68,  70,  71,  96,  95
 69,  71,  72,  97,  96
 70,  72,  73,  98,  97
 71,  73,  74,  99,  98
 72,  74,  75, 100,  99
 73,  76,  77, 102, 101
 74,  77,  78, 103, 102
 75,  78,  79, 104, 103
 76,  79,  80, 105, 104
 77,  80,  81, 106, 105
 78,  81,  82, 107, 106
 79,  82,  83, 108, 107
 80,  83,  84, 109, 108
 81,  84,  85, 110, 109
 82,  85,  86, 111, 110
 83,  86,  87, 112, 111
 84,  87,  88, 113, 112
 85,  88,  89, 114, 113
 86,  89,  90, 115, 114
 87,  90,  91, 116, 115
 88,  91,  92, 117, 116
 89,  92,  93, 118, 117
 90,  93,  94, 119, 118
 91,  94,  95, 120, 119
 92,  95,  96, 121, 120
 93,  96,  97, 122, 121
 94,  97,  98, 123, 122
 95,  98,  99, 124, 123
 96,  99, 100, 125, 124
 97, 101, 102, 127, 126
 98, 102, 103, 128, 127
 99, 103, 104, 129, 128
100, 104, 105, 130, 129
101, 105, 106, 131, 130
102, 106, 107, 132, 131
103, 107, 108, 133, 132
104, 108, 109, 134, 133
105, 109, 110, 135, 134
106, 110, 111, 136, 135
107, 111, 112, 137, 136
108, 112, 113, 138, 137
109, 113, 114, 139, 138
110, 114, 115, 140, 139
111, 115, 116, 141, 140
112, 116, 117, 142, 141
113, 117, 118, 143, 142
114, 118, 119, 144, 143
115, 119, 120, 145, 144
116, 120, 121, 146, 145
117, 121, 122, 147, 146
118, 122, 123, 148, 147
119, 123, 124, 149, 148
120, 124, 125, 150, 149
121, 126, 127, 152, 151
122, 127, 128, 153, 152
123, 128, 129, 154, 153
124, 129, 130, 155, 154
125, 130, 131, 156, 155
126, 131, 132, 157, 156
127, 132, 133, 158, 157
128, 133, 134, 159, 158
129, 134, 135, 160, 159
130, 135, 136, 161, 160
131, 136, 137, 162, 161
132, 137, 138, 163, 162
133, 138, 139, 164, 163
134, 139, 140, 165, 164
135, 140, 141, 166, 165
136, 141, 142, 167, 166
137, 142, 143, 168, 167
138, 143, 144, 169, 168
139, 144, 145, 170, 169
140, 145, 146, 171, 170
141, 146, 147, 172, 171
142, 147, 148, 173, 172
143, 148, 149, 174, 173
144, 149, 150, 175, 174
145, 151, 152, 177, 176
146, 152, 153, 178, 177
147, 153, 154, 179, 178
148, 154, 155, 180, 179
149, 155, 156, 181, 180
150, 156, 157, 182, 181
151, 157, 158, 183, 182
152, 158, 159, 184, 183
153, 159, 160, 185, 184
154, 160, 161, 186, 185
155, 161, 162, 187, 186
156, 162, 163, 188, 187
157, 163, 164, 189, 188
158, 164, 165, 190, 189
159, 165, 166, 191, 190
160, 166, 167, 192, 191
161, 167, 168, 193, 192
162, 168, 169, 194, 193
163, 169, 170, 195, 194
164, 170, 171, 196, 195
165, 171, 172, 197, 196
166, 172, 173, 198, 197
167, 173, 174, 199, 198
168, 174, 175, 200, 199
169, 176, 177, 202, 201
170, 177, 178, 203, 202
171, 178, 179, 204, 203
172, 179, 180, 205, 204
173, 180, 181, 206, 205
174, 181, 182, 207, 206
175, 182, 183, 208, 207
176, 183, 184, 209, 208
177, 184, 185, 210, 209
178, 185, 186, 211, 210
179, 186, 187, 212, 211
180, 187, 188, 213, 212
181, 188, 189, 214, 213
182, 189, 190, 215, 214
183, 190, 191, 216, 215
184, 191, 192, 217, 216
185, 192, 193, 218, 217
186, 193, 194, 219, 218
187, 194, 195, 220, 219
188, 195, 196, 221, 220
189, 196, 197, 222, 221
190, 197, 198, 223, 222
191, 198, 199, 224, 223
192, 199, 200, 225, 224
193, 201, 202, 227, 226
194, 202, 203, 228, 227
195, 203, 204, 229, 228
196, 204, 205, 230, 229
197, 205, 206, 231, 230
198, 206, 207, 232, 231
199, 207, 208, 233, 232
200, 208, 209, 234, 233
201, 209, 210, 235, 234
202, 210, 211, 236, 235
203, 211, 212, 237, 236
204, 212, 213, 238, 237
205, 213, 214, 239, 238
206, 214, 215, 240, 239
207, 215, 216, 241, 240
208, 216, 217, 242, 241
209, 217, 218, 243, 242
210, 218, 219, 244, 243
211, 219, 220, 245, 244
212, 220, 221, 246, 245
213, 221, 222, 247, 246
214, 222, 223, 248, 247
215, 223, 224, 249, 248
216, 224, 225, 250, 249
217, 226, 227, 252, 251
218, 227, 228, 253, 252
219, 228, 229, 254, 253
220, 229, 230, 255, 254
221, 230, 231, 256, 255
222, 231, 232, 257, 256
223, 232, 233, 258, 257
224, 233, 234, 259, 258
225, 234, 235, 260, 259
226, 235, 236, 261, 260
227, 236, 237, 262, 261
228, 237, 238, 263, 262
229, 238, 239, 264, 263
230, 239, 240, 265, 264
231, 240, 241, 266, 265
232, 241, 242, 267, 266
233, 242, 243, 268, 267
234, 243, 244, 269, 268
235, 244, 245, 270, 269
236, 245, 246, 271, 270
237, 246, 247, 272, 271
238, 247, 248, 273, 272
239, 248, 249, 274, 273
240, 249, 250, 275, 274
241, 251, 252, 277, 276
242, 252, 253, 278, 277
243, 253, 254, 279, 278
244, 254, 255, 280, 279
245, 255, 256, 281, 280
246, 256, 257, 282, 281
247, 257, 258, 283, 282
248, 258, 259, 284, 283
249, 259, 260, 285, 284
250, 260, 261, 286, 285
251, 261, 262, 287, 286
252, 262, 263, 288, 287
253, 263, 264, 289, 288
254, 264, 265, 290, 289
255, 265, 266, 291, 290
256, 266, 267, 292, 291
257, 267, 268, 293, 292
258, 268, 269, 294, 293
259, 269, 270, 295, 294
260, 270, 271, 296, 295
261, 271, 272, 297, 296
262, 272, 273, 298, 297
263, 273, 274, 299, 298
264, 274, 275, 300, 299
265, 276, 277, 302, 301
266, 277, 278, 303, 302
267, 278, 279, 304, 303
268, 279, 280, 305, 304
269, 280, 281, 306, 305
270, 281, 282, 307, 306
271, 282, 283, 308, 307
272, 283, 284, 309, 308
273, 284, 285, 310, 309
274, 285, 286, 311, 310
275, 286, 287, 312, 311
276, 287, 288, 313, 312
277, 288, 289, 314, 313
278, 289, 290, 315, 314
279, 290, 291, 316, 315
280, 291, 292, 317, 316
281, 292, 293, 318, 317
282, 293, 294, 319, 318
283, 294, 295, 320, 319
284, 295, 296, 321, 320
285, 296, 297, 322, 321
286, 297, 298, 323, 322
287, 298, 299, 324, 323
288, 299, 300, 325, 324
289, 301, 302, 327, 326
290, 302, 303, 328, 327
291, 303, 304, 329, 328
292, 304, 305, 330, 329
293, 305, 306, 331, 330
294, 306, 307, 332, 331
295, 307, 308, 333, 332
296, 308, 309, 334, 333
297, 309, 310, 335, 334
298, 310, 311, 336, 335
299, 311, 312, 337, 336
300, 312, 313, 338, 337
301, 313, 314, 339, 338
302, 314, 315, 340, 339
303, 315, 316, 341, 340
304, 316, 317, 342, 341
305, 317, 318, 343, 342
306, 318, 319, 344, 343
307, 319, 320, 345, 344
308, 320, 321, 346, 345
309, 321, 322, 347, 346
310, 322, 323, 348, 347
311, 323, 324, 349, 348
312, 324, 325, 350, 349
313, 326, 327, 352, 351
314, 327, 328, 353, 352
315, 328, 329, 354, 353
316, 329, 330, 355, 354
317, 330, 331, 356, 355
318, 331, 332, 357, 356
319, 332, 333, 358, 357
320, 333, 334, 359, 358
321, 334, 335, 360, 359
322, 335, 336, 361, 360
323, 336, 337, 362, 361
324, 337, 338, 363, 362
325, 338, 339, 364, 363
326, 339, 340, 365, 364
327, 340, 341, 366, 365
328, 341, 342, 367, 366
329, 342, 343, 368, 367
330, 343, 344, 369, 368
331, 344, 345, 370, 369
332, 345, 346, 371, 370
333, 346, 347, 372, 371
334, 347, 348, 373, 372
335, 348, 349, 374, 373
336, 349, 350, 375, 374
337, 351, 352, 377, 376
338, 352, 353, 378, 377
339, 353, 354, 379, 378
340, 354, 355, 380, 379
341, 355, 356, 381, 380
342, 356, 357, 382, 381
343, 357, 358, 383, 382
344, 358, 359, 384, 383
345, 359, 360, 385, 384
346, 360, 361, 386, 385
347, 361, 362, 387, 386
348, 362, 363, 388, 387
349, 363, 364, 389, 388
350, 364, 365, 390, 389
351, 365, 366, 391, 390
352, 366, 367, 392, 391
353, 367, 368, 393, 392
354, 368, 369, 394, 393
355, 369, 370, 395, 394
356, 370, 371, 396, 395
357, 371, 372, 397, 396
358, 372, 373, 398, 397
359, 373, 374, 399, 398
360, 374, 375, 400, 399
361, 376, 377, 402, 401
362, 377, 378, 403, 402
363, 378, 379, 404, 403
364, 379, 380, 405, 404
365, 380, 381, 406, 405
366, 381, 382, 407, 406
367, 382, 383, 408, 407
368, 383, 384, 409, 408
369, 384, 385, 410, 409
370, 385, 386, 411, 410
371, 386, 387, 412, 411
372, 387, 388, 413, 412
373, 388, 389, 414, 413
374, 389, 390, 415, 414
375, 390, 391, 416, 415
376, 391, 392, 417, 416
377, 392, 393, 418, 417
378, 393, 394, 419, 418
379, 394, 395, 420, 419
380, 395, 396, 421, 420
381, 396, 397, 422, 421
382, 397, 398, 423, 422
383, 398, 399, 424, 423
384, 399, 400, 425, 424
385, 401, 402, 427, 426
386, 402, 403, 428, 427
387, 403, 404, 429, 428
388, 404, 405, 430, 429
389, 405, 406, 431, 430
390, 406, 407, 432, 431
391, 407, 408, 433, 432
392, 408, 409, 434, 433
393, 409, 410, 435, 434
394, 410, 411, 436, 435
395, 411, 412, 437, 436
396, 412, 413, 438, 437
397, 413, 414, 439, 438
398, 414, 415, 440, 439
399, 415, 416, 441, 440
400, 416, 417, 442, 441
401, 417, 418, 443, 442
402, 418, 419, 444, 443
403, 419, 420, 445, 444
404, 420, 421, 446, 445
405, 421, 422, 447, 446
406, 422, 423, 448, 447
407, 423, 424, 449, 448
408, 424, 425, 450, 449
409, 426, 427, 452, 451
410, 427, 428, 453, 452
411, 428, 429, 454, 453
412, 429, 430, 455, 454
413, 430, 431, 456, 455
414, 431, 432, 457, 456
415, 432, 433, 458, 457
416, 433, 434, 459, 458
417, 434, 435, 460, 459
418, 435, 436, 461, 460
419, 436, 437, 462, 461
420, 437, 438, 463, 462
421, 438, 439, 464, 463
422, 439, 440, 465, 464
423, 440, 441, 466, 465
424, 441, 442, 467, 466
425, 442, 443, 468, 467
426, 443, 444, 469, 468
427, 444, 445, 470, 469
428, 445, 446, 471, 470
429, 446, 447, 472, 471
430, 447, 448, 473, 472
431, 448, 449, 474, 473
432, 449, 450, 475, 474
433, 451, 452, 477, 476
434, 452, 453, 478, 477
435, 453, 454, 479, 478
436, 454, 455, 480, 479
437, 455, 456, 481, 480
438, 456, 457, 482, 481
439, 457, 458, 483, 482
440, 458, 459, 484, 483
441, 459, 460, 485, 484
442, 460, 461, 486, 485
443, 461, 462, 487, 486
444, 462, 463, 488, 487
445, 463, 464, 489, 488
446, 464, 465, 490, 489
447, 465, 466, 491, 490
448, 466, 467, 492, 491
449, 467, 468, 493, 492
450, 468, 469, 494, 493
451, 469, 470, 495, 494
452, 470, 471, 496, 495
453, 471, 472, 497, 496
454, 472, 473, 498, 497
455, 473, 474, 499, 498
456, 474, 475, 500, 499
457, 476, 477, 502, 501
458, 477, 478, 503, 502
459, 478, 479, 504, 503
460, 479, 480, 505, 504
461, 480, 481, 506, 505
462, 481, 482, 507, 506
463, 482, 483, 508, 507
464, 483, 484, 509, 508
465, 484, 485, 510, 509
466, 485, 486, 511, 510
467, 486, 487, 512, 511
468, 487, 488, 513, 512
469, 488, 489, 514, 513
470, 489, 490, 515, 514
471, 490, 491, 516, 515
472, 491, 492, 517, 516
473, 492, 493, 518, 517
474, 493, 494, 519, 518
475, 494, 495, 520, 519
476, 495, 496, 521, 520
477, 496, 497, 522, 521
478, 497, 498, 523, 522
479, 498, 499, 524, 523
480, 499, 500, 525, 524
481, 501, 502, 527, 526
482, 502, 503, 528, 527
483, 503, 504, 529, 528
484, 504, 505, 530, 529
485, 505, 506, 531, 530
486, 506, 507, 532, 531
487, 507, 508, 533, 532
488, 508, 509, 534, 533
489, 509, 510, 535, 534
490, 510, 511, 536, 535
491, 511, 512, 537, 536
492, 512, 513, 538, 537
493, 513, 514, 539, 538
494, 514, 515, 540, 539
495, 515, 516, 541, 540
496, 516, 517, 542, 541
497, 517, 518, 543, 542
498, 518, 519, 544, 543
499, 519, 520, 545, 544
500, 520, 521, 546, 545
501, 521, 522, 547, 546
502, 522, 523, 548, 547
503, 523, 524, 549, 548
504, 524, 525, 550, 549
505, 526, 527, 552, 551
506, 527, 528, 553, 552
507, 528, 529, 554, 553
508, 529, 530, 555, 554
509, 530, 531, 556, 555
510, 531, 532, 557, 556
511, 532, 533, 558, 557
512, 533, 534, 559, 558
513, 534, 535, 560, 559
514, 535, 536, 561, 560
515, 536, 537, 562, 561
516, 537, 538, 563, 562
517, 538, 539, 564, 563
518, 539, 540, 565, 564
519, 540, 541, 566, 565
520, 541, 542, 567, 566
521, 542, 543, 568, 567
522, 543, 544, 569, 568
523, 544, 545, 570, 569
524, 545, 546, 571, 570
525, 546, 547, 572, 571
526, 547, 548, 573, 572
527, 548, 549, 574, 573
528, 549, 550, 575, 574
529, 551, 552, 577, 576
530, 552, 553, 578, 577
531, 553, 554, 579, 578
532, 554, 555, 580, 579
533, 555, 556, 581, 580
534, 556, 557, 582, 581
535, 557, 558, 583, 582
536, 558, 559, 584, 583
537, 559, 560, 585, 584
538, 560, 561, 586, 585
539, 561, 562, 587, 586
540, 562, 563, 588, 587
541, 563, 564, 589, 588
542, 564, 565, 590, 589
543, 565, 566, 591, 590
544, 566, 567, 592, 591
545, 567, 568, 593, 592
546, 568, 569, 594, 593
547, 569, 570, 595, 594
548, 570, 571, 596, 595
549, 571, 572, 597, 596
550, 572, 573, 598, 597
551, 573, 574, 599, 598
552, 574, 575, 600, 599
*Node
    601,           0.,       -2600.,           0.
*Nset, nset=ROCK_INST-RefPt_, internal
601, 
*Nset, nset=RP_TOP_2600
 601,
*Nset, nset=ALLROCK, generate
   1,  600,    1
*Elset, elset=ALLROCK, generate
   1,  552,    1
*Nset, nset=FASEI_SLAVE, generate
   1,  600,    1
*Elset, elset=FASEI_SLAVE, generate
   1,  552,    1
*Nset, nset=L1-I_BASE, generate
 576,  600,    1
*Elset, elset=L1-I_BASE, generate
 529,  552,    1
*Nset, nset=L1-I_ID, generate
  25,  600,   25
*Elset, elset=L1-I_ID, generate
  24,  552,   24
*Nset, nset=L1-I_OD, generate
   1,  576,   25
*Elset, elset=L1-I_OD, generate
   1,  529,   24
*Nset, nset=L1-I_TOP, generate
  1,  25,   1
*Elset, elset=L1-I_TOP, generate
  1,  24,   1
*Nset, nset=L1-I, generate
   1,  600,    1
*Elset, elset=L1-I, generate
   1,  552,    1
** Section: LAYER_01_SANDSTONE_Section
*Solid Section, elset=L1-I, material=LAYER_01_SANDSTONE
1.,
*End Instance
**  
*Nset, nset=ALL, instance=FLUID_INST, generate
  1,  96,   1
*Nset, nset=ALL, instance=PIPE_INST, generate
  1,  96,   1
*Nset, nset=ALL, instance=ROCK_INST, generate
   1,  600,    1
*Elset, elset=ALL, instance=FLUID_INST, generate
  1,  69,   1
*Elset, elset=ALL, instance=PIPE_INST, generate
  1,  69,   1
*Elset, elset=ALL, instance=ROCK_INST, generate
   1,  552,    1
*Nset, nset=FASEI, instance=FLUID_INST, generate
  1,  96,   1
*Nset, nset=FASEI, instance=PIPE_INST, generate
  1,  96,   1
*Elset, elset=FASEI, instance=FLUID_INST, generate
  1,  69,   1
*Elset, elset=FASEI, instance=PIPE_INST, generate
  1,  69,   1
*Nset, nset=FASEI_COMPLETED_WELL, instance=PIPE_INST, generate
  4,  96,   4
*Elset, elset=FASEI_COMPLETED_WELL, instance=PIPE_INST, generate
  3,  69,   3
*Nset, nset=FASEI_OPEN_WELL, instance=ROCK_INST, generate
  25,  600,   25
*Elset, elset=FASEI_OPEN_WELL, instance=ROCK_INST, generate
  24,  552,   24
*Nset, nset=FASEI_WELL, instance=ROCK_INST, generate
  25,  600,   25
*Elset, elset=FASEI_WELL, instance=ROCK_INST, generate
  24,  552,   24
*Nset, nset=MESH_TT_ANNULARS, instance=FLUID_INST
  1,  2,  3,  4, 93, 94, 95, 96
*Elset, elset=MESH_TT_ANNULARS, instance=FLUID_INST
  1,  2,  3, 67, 68, 69
*Nset, nset=MESH_TT_PIPES, instance=PIPE_INST
  1,  2,  3,  4, 93, 94, 95, 96
*Elset, elset=MESH_TT_PIPES, instance=PIPE_INST
  1,  2,  3, 67, 68, 69
*Nset, nset=MESH_TT_ROCK, instance=ROCK_INST
   1,   2,   3,   4,   5,   6,   7,   8,   9,  10,  11,  12,  13,  14,  15,  16
  17,  18,  19,  20,  21,  22,  23,  24,  25, 576, 577, 578, 579, 580, 581, 582
 583, 584, 585, 586, 587, 588, 589, 590, 591, 592, 593, 594, 595, 596, 597, 598
 599, 600
*Elset, elset=MESH_TT_ROCK, instance=ROCK_INST
   1,   2,   3,   4,   5,   6,   7,   8,   9,  10,  11,  12,  13,  14,  15,  16
  17,  18,  19,  20,  21,  22,  23,  24, 529, 530, 531, 532, 533, 534, 535, 536
 537, 538, 539, 540, 541, 542, 543, 544, 545, 546, 547, 548, 549, 550, 551, 552
*Nset, nset=MESH_VERTICAL, instance=FLUID_INST
  1,  4,  5,  8,  9, 12, 13, 16, 17, 20, 21, 24, 25, 28, 29, 32
 33, 36, 37, 40, 41, 44, 45, 48, 49, 52, 53, 56, 57, 60, 61, 64
 65, 68, 69, 72, 73, 76, 77, 80, 81, 84, 85, 88, 89, 92, 93, 96
*Nset, nset=MESH_VERTICAL, instance=PIPE_INST
  1,  4,  5,  8,  9, 12, 13, 16, 17, 20, 21, 24, 25, 28, 29, 32
 33, 36, 37, 40, 41, 44, 45, 48, 49, 52, 53, 56, 57, 60, 61, 64
 65, 68, 69, 72, 73, 76, 77, 80, 81, 84, 85, 88, 89, 92, 93, 96
*Nset, nset=MESH_VERTICAL, instance=ROCK_INST
   1,  25,  26,  50,  51,  75,  76, 100, 101, 125, 126, 150, 151, 175, 176, 200
 201, 225, 226, 250, 251, 275, 276, 300, 301, 325, 326, 350, 351, 375, 376, 400
 401, 425, 426, 450, 451, 475, 476, 500, 501, 525, 526, 550, 551, 575, 576, 600
*Elset, elset=MESH_VERTICAL, instance=FLUID_INST
  1,  3,  4,  6,  7,  9, 10, 12, 13, 15, 16, 18, 19, 21, 22, 24
 25, 27, 28, 30, 31, 33, 34, 36, 37, 39, 40, 42, 43, 45, 46, 48
 49, 51, 52, 54, 55, 57, 58, 60, 61, 63, 64, 66, 67, 69
*Elset, elset=MESH_VERTICAL, instance=PIPE_INST
  1,  3,  4,  6,  7,  9, 10, 12, 13, 15, 16, 18, 19, 21, 22, 24
 25, 27, 28, 30, 31, 33, 34, 36, 37, 39, 40, 42, 43, 45, 46, 48
 49, 51, 52, 54, 55, 57, 58, 60, 61, 63, 64, 66, 67, 69
*Elset, elset=MESH_VERTICAL, instance=ROCK_INST
   1,  24,  25,  48,  49,  72,  73,  96,  97, 120, 121, 144, 145, 168, 169, 192
 193, 216, 217, 240, 241, 264, 265, 288, 289, 312, 313, 336, 337, 360, 361, 384
 385, 408, 409, 432, 433, 456, 457, 480, 481, 504, 505, 528, 529, 552
*Nset, nset=ROCK_BC, instance=ROCK_INST, generate
   1,  576,   25
*Elset, elset=ROCK_BC, instance=ROCK_INST, generate
   1,  529,   24
*Nset, nset=ROCK_OUTPUT, instance=ROCK_INST, generate
   1,  600,    1
*Elset, elset=ROCK_OUTPUT, instance=ROCK_INST, generate
   1,  552,    1
*Nset, nset=YSYM_BASE, instance=FLUID_INST, generate
 93,  96,   1
*Nset, nset=YSYM_BASE, instance=PIPE_INST, generate
 93,  96,   1
*Nset, nset=YSYM_BASE, instance=ROCK_INST, generate
 576,  600,    1
*Elset, elset=YSYM_BASE, instance=FLUID_INST, generate
 67,  69,   1
*Elset, elset=YSYM_BASE, instance=PIPE_INST, generate
 67,  69,   1
*Elset, elset=YSYM_BASE, instance=ROCK_INST, generate
 529,  552,    1
*Nset, nset=YSYM_TOP, instance=FLUID_INST, generate
 1,  4,  1
*Nset, nset=YSYM_TOP, instance=PIPE_INST, generate
 1,  4,  1
*Nset, nset=YSYM_TOP, instance=ROCK_INST, generate
  1,  25,   1
*Elset, elset=YSYM_TOP, instance=FLUID_INST, generate
 1,  3,  1
*Elset, elset=YSYM_TOP, instance=PIPE_INST, generate
 1,  3,  1
*Elset, elset=YSYM_TOP, instance=ROCK_INST, generate
  1,  24,   1
*Elset, elset=_FASEI_ANNULAR_S1, internal, instance=FLUID_INST, generate
 1,  3,  1
*Elset, elset=_FASEI_ANNULAR_S2, internal, instance=FLUID_INST, generate
  3,  69,   3
*Elset, elset=_FASEI_ANNULAR_S3, internal, instance=FLUID_INST, generate
 67,  69,   1
*Elset, elset=_FASEI_ANNULAR_S4, internal, instance=FLUID_INST, generate
  1,  67,   3
*Surface, type=ELEMENT, name=FASEI_ANNULAR
_FASEI_ANNULAR_S1, S1
_FASEI_ANNULAR_S2, S2
_FASEI_ANNULAR_S4, S4
_FASEI_ANNULAR_S3, S3
*Elset, elset=_FASEI_COMPLETED_WELL_S2, internal, instance=PIPE_INST, generate
  3,  69,   3
*Surface, type=ELEMENT, name=FASEI_COMPLETED_WELL
_FASEI_COMPLETED_WELL_S2, S2
*Elset, elset=_FASEI_FLUIDO_S2, internal, instance=FLUID_INST, generate
  3,  69,   3
*Elset, elset=_FASEI_FLUIDO_S4, internal, instance=FLUID_INST, generate
  1,  67,   3
*Surface, type=ELEMENT, name=FASEI_FLUIDO
_FASEI_FLUIDO_S2, S2
_FASEI_FLUIDO_S4, S4
*Elset, elset=_FASEI_MASTER_S4, internal, instance=PIPE_INST, generate
  1,  67,   3
*Surface, type=ELEMENT, name=FASEI_MASTER
_FASEI_MASTER_S4, S4
*Elset, elset=_FASEI_OPEN_WELL_S2, internal, instance=ROCK_INST, generate
  24,  552,   24
*Surface, type=ELEMENT, name=FASEI_OPEN_WELL
_FASEI_OPEN_WELL_S2, S2
*Elset, elset=_FASEI_REV_S1, internal, instance=PIPE_INST, generate
 1,  3,  1
*Elset, elset=_FASEI_REV_S2, internal, instance=PIPE_INST, generate
  3,  69,   3
*Elset, elset=_FASEI_REV_S3, internal, instance=PIPE_INST, generate
 67,  69,   1
*Elset, elset=_FASEI_REV_S4, internal, instance=PIPE_INST, generate
  1,  67,   3
*Surface, type=ELEMENT, name=FASEI_REV
_FASEI_REV_S1, S1
_FASEI_REV_S2, S2
_FASEI_REV_S4, S4
_FASEI_REV_S3, S3
*Elset, elset=_FASEI_WELL_S2, internal, instance=ROCK_INST, generate
  24,  552,   24
*Surface, type=ELEMENT, name=FASEI_WELL
_FASEI_WELL_S2, S2
*Surface, type=NODE, name=ROCK_INST_FASEI_SLAVE_CNS_, internal
ROCK_INST.FASEI_SLAVE, 1.
*End Assembly
** 
** MATERIALS
** 
*Material, name=FLUID
*Conductivity
 0.702,
*Density
1.,
*Elastic
10000.,0.
*Specific Heat
 8.61904e+06,
*Material, name=LAYER_01_SANDSTONE
*Conductivity
 1.869,
*Density
2300.,
*Elastic
 2.4062e+10, 0.25
*Expansion
 1e-05,
*Specific Heat
 878.414,
*Mohr Coulomb
30., 7.5
*Mohr Coulomb Hardening
 2.00017e+07,0.
*Material, name=STEEL
*Conductivity
 45.3452,
*Density
7935.,
*Elastic
 2.06843e+11, 0.3
*Expansion
 0.0001242,
*Specific Heat
 1.92841e+06,
** 
** INTERACTION PROPERTIES
** 
*Surface Interaction, name=C_FASEI
1.,
*Friction, slip tolerance=0.005
 0.5,
*Surface Behavior, pressure-overclosure=HARD
*Time Points, name=timePoint
1., 3600., 7200., 14400., 28800., 57600., 86400., 172800.
345600., 691200., 1.3824e+06, 2.7648e+06, 5.5296e+06, 1.10592e+07, 2.21184e+07, 3.1536e+07
6.3072e+07, 1.26144e+08, 2.52288e+08, 5.04576e+08, 9.4608e+08
** 
** PHYSICAL CONSTANTS
** 
*Physical Constants, absolute zero=0., stefan boltzmann=5.67037e-08
** 
** BOUNDARY CONDITIONS
** 
** Name: FIX_FASEI_WELL Type: Symmetry/Antisymmetry/Encastre
*Boundary
FASEI_OPEN_WELL, XSYMM
** Name: PIN_FASEI Type: Symmetry/Antisymmetry/Encastre
*Boundary
PIPE_INST.FASEI_REV, PINNED
** Name: XSYM_ROCK_BC Type: Symmetry/Antisymmetry/Encastre
*Boundary
ROCK_BC, XSYMM
** Name: YSYM_BASE Type: Symmetry/Antisymmetry/Encastre
*Boundary
YSYM_BASE, YSYMM
** Name: YSYM_TOP Type: Symmetry/Antisymmetry/Encastre
*Boundary
YSYM_TOP, YSYMM
** 
** PREDEFINED FIELDS
** 
** Name: S_FASEI_REV   Type: Geostatic stress
*Initial Conditions, type=STRESS, GEOSTATIC
PIPE_INST.FASEI_REV, 1.5478e+08, -2600., 8.47216e+07, -3500., 0., 0.
** Name: S_L1-I   Type: Geostatic stress
*Initial Conditions, type=STRESS, GEOSTATIC
ROCK_INST.L1-I, -3.35192e+07, -2600., -5.38253e+07, -3500., 1., 1.
** 
** INTERACTIONS
** 
** Interaction: C_FASEI
*Contact Pair, interaction=C_FASEI, type=SURFACE TO SURFACE
ROCK_INST_FASEI_SLAVE_CNS_, FASEI_MASTER
** ----------------------------------------------------------------
** 
** STEP: Geostatic
** 
*Step, name=Geostatic, nlgeom=YES
*Geostatic
** 
** LOADS
** 
** Name: GRAVITY   Type: Gravity
*Dload
, GRAV, 9.81, , -1.
** 
** INTERACTIONS
** 
** Interaction: C_FASEI
*Model Change, type=CONTACT PAIR, remove
ROCK_INST_FASEI_SLAVE_CNS_, FASEI_MASTER
** Interaction: MC_FASEI_FLUIDO
*Model Change, remove
FLUID_INST.FASEI_FLUIDO, 
** Interaction: MC_FASEI_REV
*Model Change, remove
PIPE_INST.FASEI_REV, 
** 
** OUTPUT REQUESTS
** 
*Restart, write, frequency=0
** 
** FIELD OUTPUT: FASEI_REV
** 
*Output, field
*Node Output, nset=PIPE_INST.FASEI_REV
NT, U
*Element Output, elset=PIPE_INST.FASEI_REV, directions=YES
E, MISES, PE, S, PEEQ
** 
** FIELD OUTPUT: ROCK_OUTPUT
** 
*Node Output, nset=ROCK_OUTPUT
U, 
*Element Output, elset=ROCK_OUTPUT, directions=YES
TEMP, 
*Output, history, frequency=0
*End Step
** ----------------------------------------------------------------
** 
** STEP: Transition
** 
*Step, name=Transition, nlgeom=YES
*Static
1., 2., 2e-05, 2.
** 
** OUTPUT REQUESTS
** 
*Restart, write, frequency=0
** 
** FIELD OUTPUT: FASEI_REV
** 
*Output, field, time points=timePoint
*Node Output, nset=PIPE_INST.FASEI_REV
NT, U
*Element Output, elset=PIPE_INST.FASEI_REV, directions=YES
E, MISES, PE, S, PEEQ
** 
** FIELD OUTPUT: ROCK_OUTPUT
** 
*Node Output, nset=ROCK_OUTPUT
U, 
*Element Output, elset=ROCK_OUTPUT, directions=YES
TEMP, 
*Output, history, frequency=0
*End Step
** ----------------------------------------------------------------
** 
** STEP: TempDefine
** 
*Step, name=TempDefine, nlgeom=YES
*Static
1., 3., 3e-05, 3.
** 
** PREDEFINED FIELDS
** 
** Name: NT_FASEI   Type: Temperature Using Field: Geotermico
*Temperature
FLUID_INST.1, 289.992
FLUID_INST.2, 289.992
FLUID_INST.3, 289.992
FLUID_INST.4, 289.992
FLUID_INST.5, 290.791
FLUID_INST.6, 290.791
FLUID_INST.7, 290.791
FLUID_INST.8, 290.791
FLUID_INST.9, 291.59
FLUID_INST.10, 291.59
FLUID_INST.11, 291.59
FLUID_INST.12, 291.59
FLUID_INST.13, 292.443
FLUID_INST.14, 292.443
FLUID_INST.15, 292.443
FLUID_INST.16, 292.443
FLUID_INST.17, 293.295
FLUID_INST.18, 293.295
FLUID_INST.19, 293.295
FLUID_INST.20, 293.295
FLUID_INST.21, 294.095
FLUID_INST.22, 294.095
FLUID_INST.23, 294.095
FLUID_INST.24, 294.095
FLUID_INST.25, 294.947
FLUID_INST.26, 294.947
FLUID_INST.27, 294.947
FLUID_INST.28, 294.947
FLUID_INST.29, 295.8
FLUID_INST.30, 295.8
FLUID_INST.31, 295.8
FLUID_INST.32, 295.8
FLUID_INST.33, 296.599
FLUID_INST.34, 296.599
FLUID_INST.35, 296.599
FLUID_INST.36, 296.599
FLUID_INST.37, 297.452
FLUID_INST.38, 297.452
FLUID_INST.39, 297.452
FLUID_INST.40, 297.452
FLUID_INST.41, 298.304
FLUID_INST.42, 298.304
FLUID_INST.43, 298.304
FLUID_INST.44, 298.304
FLUID_INST.45, 299.104
FLUID_INST.46, 299.104
FLUID_INST.47, 299.104
FLUID_INST.48, 299.104
FLUID_INST.49, 299.956
FLUID_INST.50, 299.956
FLUID_INST.51, 299.956
FLUID_INST.52, 299.956
FLUID_INST.53, 300.756
FLUID_INST.54, 300.756
FLUID_INST.55, 300.756
FLUID_INST.56, 300.756
FLUID_INST.57, 301.608
FLUID_INST.58, 301.608
FLUID_INST.59, 301.608
FLUID_INST.60, 301.608
FLUID_INST.61, 302.461
FLUID_INST.62, 302.461
FLUID_INST.63, 302.461
FLUID_INST.64, 302.461
FLUID_INST.65, 303.26
FLUID_INST.66, 303.26
FLUID_INST.67, 303.26
FLUID_INST.68, 303.26
FLUID_INST.69, 304.113
FLUID_INST.70, 304.113
FLUID_INST.71, 304.113
FLUID_INST.72, 304.113
FLUID_INST.73, 304.965
FLUID_INST.74, 304.965
FLUID_INST.75, 304.965
FLUID_INST.76, 304.965
FLUID_INST.77, 305.765
FLUID_INST.78, 305.765
FLUID_INST.79, 305.765
FLUID_INST.80, 305.765
FLUID_INST.81, 306.617
FLUID_INST.82, 306.617
FLUID_INST.83, 306.617
FLUID_INST.84, 306.617
FLUID_INST.85, 307.47
FLUID_INST.86, 307.47
FLUID_INST.87, 307.47
FLUID_INST.88, 307.47
FLUID_INST.89, 308.269
FLUID_INST.90, 308.269
FLUID_INST.91, 308.269
FLUID_INST.92, 308.269
FLUID_INST.93, 309.068
FLUID_INST.94, 309.068
FLUID_INST.95, 309.068
FLUID_INST.96, 309.068
PIPE_INST.1, 289.992
PIPE_INST.2, 289.992
PIPE_INST.3, 289.992
PIPE_INST.4, 289.992
PIPE_INST.5, 290.791
PIPE_INST.6, 290.791
PIPE_INST.7, 290.791
PIPE_INST.8, 290.791
PIPE_INST.9, 291.59
PIPE_INST.10, 291.59
PIPE_INST.11, 291.59
PIPE_INST.12, 291.59
PIPE_INST.13, 292.443
PIPE_INST.14, 292.443
PIPE_INST.15, 292.443
PIPE_INST.16, 292.443
PIPE_INST.17, 293.295
PIPE_INST.18, 293.295
PIPE_INST.19, 293.295
PIPE_INST.20, 293.295
PIPE_INST.21, 294.095
PIPE_INST.22, 294.095
PIPE_INST.23, 294.095
PIPE_INST.24, 294.095
PIPE_INST.25, 294.947
PIPE_INST.26, 294.947
PIPE_INST.27, 294.947
PIPE_INST.28, 294.947
PIPE_INST.29, 295.8
PIPE_INST.30, 295.8
PIPE_INST.31, 295.8
PIPE_INST.32, 295.8
PIPE_INST.33, 296.599
PIPE_INST.34, 296.599
PIPE_INST.35, 296.599
PIPE_INST.36, 296.599
PIPE_INST.37, 297.452
PIPE_INST.38, 297.452
PIPE_INST.39, 297.452
PIPE_INST.40, 297.452
PIPE_INST.41, 298.304
PIPE_INST.42, 298.304
PIPE_INST.43, 298.304
PIPE_INST.44, 298.304
PIPE_INST.45, 299.104
PIPE_INST.46, 299.104
PIPE_INST.47, 299.104
PIPE_INST.48, 299.104
PIPE_INST.49, 299.956
PIPE_INST.50, 299.956
PIPE_INST.51, 299.956
PIPE_INST.52, 299.956
PIPE_INST.53, 300.756
PIPE_INST.54, 300.756
PIPE_INST.55, 300.756
PIPE_INST.56, 300.756
PIPE_INST.57, 301.608
PIPE_INST.58, 301.608
PIPE_INST.59, 301.608
PIPE_INST.60, 301.608
PIPE_INST.61, 302.461
PIPE_INST.62, 302.461
PIPE_INST.63, 302.461
PIPE_INST.64, 302.461
PIPE_INST.65, 303.26
PIPE_INST.66, 303.26
PIPE_INST.67, 303.26
PIPE_INST.68, 303.26
PIPE_INST.69, 304.113
PIPE_INST.70, 304.113
PIPE_INST.71, 304.113
PIPE_INST.72, 304.113
PIPE_INST.73, 304.965
PIPE_INST.74, 304.965
PIPE_INST.75, 304.965
PIPE_INST.76, 304.965
PIPE_INST.77, 305.765
PIPE_INST.78, 305.765
PIPE_INST.79, 305.765
PIPE_INST.80, 305.765
PIPE_INST.81, 306.617
PIPE_INST.82, 306.617
PIPE_INST.83, 306.617
PIPE_INST.84, 306.617
PIPE_INST.85, 307.47
PIPE_INST.86, 307.47
PIPE_INST.87, 307.47
PIPE_INST.88, 307.47
PIPE_INST.89, 308.269
PIPE_INST.90, 308.269
PIPE_INST.91, 308.269
PIPE_INST.92, 308.269
PIPE_INST.93, 309.068
PIPE_INST.94, 309.068
PIPE_INST.95, 309.068
PIPE_INST.96, 309.068
** Name: NT_FASEI_ID   Type: Temperature Using Field: Geotermico
*Temperature
PIPE_INST.4, 289.992
PIPE_INST.8, 290.791
PIPE_INST.12, 291.59
PIPE_INST.16, 292.443
PIPE_INST.20, 293.295
PIPE_INST.24, 294.095
PIPE_INST.28, 294.947
PIPE_INST.32, 295.8
PIPE_INST.36, 296.599
PIPE_INST.40, 297.452
PIPE_INST.44, 298.304
PIPE_INST.48, 299.104
PIPE_INST.52, 299.956
PIPE_INST.56, 300.756
PIPE_INST.60, 301.608
PIPE_INST.64, 302.461
PIPE_INST.68, 303.26
PIPE_INST.72, 304.113
PIPE_INST.76, 304.965
PIPE_INST.80, 305.765
PIPE_INST.84, 306.617
PIPE_INST.88, 307.47
PIPE_INST.92, 308.269
PIPE_INST.96, 309.068
** Name: NT_L1-I   Type: Temperature Using Field: NT_L1-I
*Temperature
ROCK_INST.1, 289.977
ROCK_INST.2, 289.977
ROCK_INST.3, 289.977
ROCK_INST.4, 289.977
ROCK_INST.5, 289.977
ROCK_INST.6, 289.977
ROCK_INST.7, 289.977
ROCK_INST.8, 289.977
ROCK_INST.9, 289.977
ROCK_INST.10, 289.977
ROCK_INST.11, 289.977
ROCK_INST.12, 289.977
ROCK_INST.13, 289.977
ROCK_INST.14, 289.977
ROCK_INST.15, 289.977
ROCK_INST.16, 289.977
ROCK_INST.17, 289.977
ROCK_INST.18, 289.977
ROCK_INST.19, 289.977
ROCK_INST.20, 289.977
ROCK_INST.21, 289.977
ROCK_INST.22, 289.977
ROCK_INST.23, 289.977
ROCK_INST.24, 289.977
ROCK_INST.25, 289.977
ROCK_INST.26, 290.811
ROCK_INST.27, 290.811
ROCK_INST.28, 290.811
ROCK_INST.29, 290.811
ROCK_INST.30, 290.811
ROCK_INST.31, 290.811
ROCK_INST.32, 290.811
ROCK_INST.33, 290.811
ROCK_INST.34, 290.811
ROCK_INST.35, 290.811
ROCK_INST.36, 290.811
ROCK_INST.37, 290.811
ROCK_INST.38, 290.811
ROCK_INST.39, 290.811
ROCK_INST.40, 290.811
ROCK_INST.41, 290.811
ROCK_INST.42, 290.811
ROCK_INST.43, 290.811
ROCK_INST.44, 290.811
ROCK_INST.45, 290.811
ROCK_INST.46, 290.811
ROCK_INST.47, 290.811
ROCK_INST.48, 290.811
ROCK_INST.49, 290.811
ROCK_INST.50, 290.811
ROCK_INST.51, 291.645
ROCK_INST.52, 291.645
ROCK_INST.53, 291.645
ROCK_INST.54, 291.645
ROCK_INST.55, 291.645
ROCK_INST.56, 291.645
ROCK_INST.57, 291.645
ROCK_INST.58, 291.645
ROCK_INST.59, 291.645
ROCK_INST.60, 291.645
ROCK_INST.61, 291.645
ROCK_INST.62, 291.645
ROCK_INST.63, 291.645
ROCK_INST.64, 291.645
ROCK_INST.65, 291.645
ROCK_INST.66, 291.645
ROCK_INST.67, 291.645
ROCK_INST.68, 291.645
ROCK_INST.69, 291.645
ROCK_INST.70, 291.645
ROCK_INST.71, 291.645
ROCK_INST.72, 291.645
ROCK_INST.73, 291.645
ROCK_INST.74, 291.645
ROCK_INST.75, 291.645
ROCK_INST.76, 292.48
ROCK_INST.77, 292.48
ROCK_INST.78, 292.48
ROCK_INST.79, 292.48
ROCK_INST.80, 292.48
ROCK_INST.81, 292.48
ROCK_INST.82, 292.48
ROCK_INST.83, 292.48
ROCK_INST.84, 292.48
ROCK_INST.85, 292.48
ROCK_INST.86, 292.48
ROCK_INST.87, 292.48
ROCK_INST.88, 292.48
ROCK_INST.89, 292.48
ROCK_INST.90, 292.48
ROCK_INST.91, 292.48
ROCK_INST.92, 292.48
ROCK_INST.93, 292.48
ROCK_INST.94, 292.48
ROCK_INST.95, 292.48
ROCK_INST.96, 292.48
ROCK_INST.97, 292.48
ROCK_INST.98, 292.48
ROCK_INST.99, 292.48
ROCK_INST.100, 292.48
ROCK_INST.101, 293.314
ROCK_INST.102, 293.314
ROCK_INST.103, 293.314
ROCK_INST.104, 293.314
ROCK_INST.105, 293.314
ROCK_INST.106, 293.314
ROCK_INST.107, 293.314
ROCK_INST.108, 293.314
ROCK_INST.109, 293.314
ROCK_INST.110, 293.314
ROCK_INST.111, 293.314
ROCK_INST.112, 293.314
ROCK_INST.113, 293.314
ROCK_INST.114, 293.314
ROCK_INST.115, 293.314
ROCK_INST.116, 293.314
ROCK_INST.117, 293.314
ROCK_INST.118, 293.314
ROCK_INST.119, 293.314
ROCK_INST.120, 293.314
ROCK_INST.121, 293.314
ROCK_INST.122, 293.314
ROCK_INST.123, 293.314
ROCK_INST.124, 293.314
ROCK_INST.125, 293.314
ROCK_INST.126, 294.148
ROCK_INST.127, 294.148
ROCK_INST.128, 294.148
ROCK_INST.129, 294.148
ROCK_INST.130, 294.148
ROCK_INST.131, 294.148
ROCK_INST.132, 294.148
ROCK_INST.133, 294.148
ROCK_INST.134, 294.148
ROCK_INST.135, 294.148
ROCK_INST.136, 294.148
ROCK_INST.137, 294.148
ROCK_INST.138, 294.148
ROCK_INST.139, 294.148
ROCK_INST.140, 294.148
ROCK_INST.141, 294.148
ROCK_INST.142, 294.148
ROCK_INST.143, 294.148
ROCK_INST.144, 294.148
ROCK_INST.145, 294.148
ROCK_INST.146, 294.148
ROCK_INST.147, 294.148
ROCK_INST.148, 294.148
ROCK_INST.149, 294.148
ROCK_INST.150, 294.148
ROCK_INST.151, 294.982
ROCK_INST.152, 294.982
ROCK_INST.153, 294.982
ROCK_INST.154, 294.982
ROCK_INST.155, 294.982
ROCK_INST.156, 294.982
ROCK_INST.157, 294.982
ROCK_INST.158, 294.982
ROCK_INST.159, 294.982
ROCK_INST.160, 294.982
ROCK_INST.161, 294.982
ROCK_INST.162, 294.982
ROCK_INST.163, 294.982
ROCK_INST.164, 294.982
ROCK_INST.165, 294.982
ROCK_INST.166, 294.982
ROCK_INST.167, 294.982
ROCK_INST.168, 294.982
ROCK_INST.169, 294.982
ROCK_INST.170, 294.982
ROCK_INST.171, 294.982
ROCK_INST.172, 294.982
ROCK_INST.173, 294.982
ROCK_INST.174, 294.982
ROCK_INST.175, 294.982
ROCK_INST.176, 295.816
ROCK_INST.177, 295.816
ROCK_INST.178, 295.816
ROCK_INST.179, 295.816
ROCK_INST.180, 295.816
ROCK_INST.181, 295.816
ROCK_INST.182, 295.816
ROCK_INST.183, 295.816
ROCK_INST.184, 295.816
ROCK_INST.185, 295.816
ROCK_INST.186, 295.816
ROCK_INST.187, 295.816
ROCK_INST.188, 295.816
ROCK_INST.189, 295.816
ROCK_INST.190, 295.816
ROCK_INST.191, 295.816
ROCK_INST.192, 295.816
ROCK_INST.193, 295.816
ROCK_INST.194, 295.816
ROCK_INST.195, 295.816
ROCK_INST.196, 295.816
ROCK_INST.197, 295.816
ROCK_INST.198, 295.816
ROCK_INST.199, 295.816
ROCK_INST.200, 295.816
ROCK_INST.201, 296.65
ROCK_INST.202, 296.65
ROCK_INST.203, 296.65
ROCK_INST.204, 296.65
ROCK_INST.205, 296.65
ROCK_INST.206, 296.65
ROCK_INST.207, 296.65
ROCK_INST.208, 296.65
ROCK_INST.209, 296.65
ROCK_INST.210, 296.65
ROCK_INST.211, 296.65
ROCK_INST.212, 296.65
ROCK_INST.213, 296.65
ROCK_INST.214, 296.65
ROCK_INST.215, 296.65
ROCK_INST.216, 296.65
ROCK_INST.217, 296.65
ROCK_INST.218, 296.65
ROCK_INST.219, 296.65
ROCK_INST.220, 296.65
ROCK_INST.221, 296.65
ROCK_INST.222, 296.65
ROCK_INST.223, 296.65
ROCK_INST.224, 296.65
ROCK_INST.225, 296.65
ROCK_INST.226, 297.484
ROCK_INST.227, 297.484
ROCK_INST.228, 297.484
ROCK_INST.229, 297.484
ROCK_INST.230, 297.484
ROCK_INST.231, 297.484
ROCK_INST.232, 297.484
ROCK_INST.233, 297.484
ROCK_INST.234, 297.484
ROCK_INST.235, 297.484
ROCK_INST.236, 297.484
ROCK_INST.237, 297.484
ROCK_INST.238, 297.484
ROCK_INST.239, 297.484
ROCK_INST.240, 297.484
ROCK_INST.241, 297.484
ROCK_INST.242, 297.484
ROCK_INST.243, 297.484
ROCK_INST.244, 297.484
ROCK_INST.245, 297.484
ROCK_INST.246, 297.484
ROCK_INST.247, 297.484
ROCK_INST.248, 297.484
ROCK_INST.249, 297.484
ROCK_INST.250, 297.484
ROCK_INST.251, 298.319
ROCK_INST.252, 298.319
ROCK_INST.253, 298.319
ROCK_INST.254, 298.319
ROCK_INST.255, 298.319
ROCK_INST.256, 298.319
ROCK_INST.257, 298.319
ROCK_INST.258, 298.319
ROCK_INST.259, 298.319
ROCK_INST.260, 298.319
ROCK_INST.261, 298.319
ROCK_INST.262, 298.319
ROCK_INST.263, 298.319
ROCK_INST.264, 298.319
ROCK_INST.265, 298.319
ROCK_INST.266, 298.319
ROCK_INST.267, 298.319
ROCK_INST.268, 298.319
ROCK_INST.269, 298.319
ROCK_INST.270, 298.319
ROCK_INST.271, 298.319
ROCK_INST.272, 298.319
ROCK_INST.273, 298.319
ROCK_INST.274, 298.319
ROCK_INST.275, 298.319
ROCK_INST.276, 299.153
ROCK_INST.277, 299.153
ROCK_INST.278, 299.153
ROCK_INST.279, 299.153
ROCK_INST.280, 299.153
ROCK_INST.281, 299.153
ROCK_INST.282, 299.153
ROCK_INST.283, 299.153
ROCK_INST.284, 299.153
ROCK_INST.285, 299.153
ROCK_INST.286, 299.153
ROCK_INST.287, 299.153
ROCK_INST.288, 299.153
ROCK_INST.289, 299.153
ROCK_INST.290, 299.153
ROCK_INST.291, 299.153
ROCK_INST.292, 299.153
ROCK_INST.293, 299.153
ROCK_INST.294, 299.153
ROCK_INST.295, 299.153
ROCK_INST.296, 299.153
ROCK_INST.297, 299.153
ROCK_INST.298, 299.153
ROCK_INST.299, 299.153
ROCK_INST.300, 299.153
ROCK_INST.301, 299.987
ROCK_INST.302, 299.987
ROCK_INST.303, 299.987
ROCK_INST.304, 299.987
ROCK_INST.305, 299.987
ROCK_INST.306, 299.987
ROCK_INST.307, 299.987
ROCK_INST.308, 299.987
ROCK_INST.309, 299.987
ROCK_INST.310, 299.987
ROCK_INST.311, 299.987
ROCK_INST.312, 299.987
ROCK_INST.313, 299.987
ROCK_INST.314, 299.987
ROCK_INST.315, 299.987
ROCK_INST.316, 299.987
ROCK_INST.317, 299.987
ROCK_INST.318, 299.987
ROCK_INST.319, 299.987
ROCK_INST.320, 299.987
ROCK_INST.321, 299.987
ROCK_INST.322, 299.987
ROCK_INST.323, 299.987
ROCK_INST.324, 299.987
ROCK_INST.325, 299.987
ROCK_INST.326, 300.821
ROCK_INST.327, 300.821
ROCK_INST.328, 300.821
ROCK_INST.329, 300.821
ROCK_INST.330, 300.821
ROCK_INST.331, 300.821
ROCK_INST.332, 300.821
ROCK_INST.333, 300.821
ROCK_INST.334, 300.821
ROCK_INST.335, 300.821
ROCK_INST.336, 300.821
ROCK_INST.337, 300.821
ROCK_INST.338, 300.821
ROCK_INST.339, 300.821
ROCK_INST.340, 300.821
ROCK_INST.341, 300.821
ROCK_INST.342, 300.821
ROCK_INST.343, 300.821
ROCK_INST.344, 300.821
ROCK_INST.345, 300.821
ROCK_INST.346, 300.821
ROCK_INST.347, 300.821
ROCK_INST.348, 300.821
ROCK_INST.349, 300.821
ROCK_INST.350, 300.821
ROCK_INST.351, 301.655
ROCK_INST.352, 301.655
ROCK_INST.353, 301.655
ROCK_INST.354, 301.655
ROCK_INST.355, 301.655
ROCK_INST.356, 301.655
ROCK_INST.357, 301.655
ROCK_INST.358, 301.655
ROCK_INST.359, 301.655
ROCK_INST.360, 301.655
ROCK_INST.361, 301.655
ROCK_INST.362, 301.655
ROCK_INST.363, 301.655
ROCK_INST.364, 301.655
ROCK_INST.365, 301.655
ROCK_INST.366, 301.655
ROCK_INST.367, 301.655
ROCK_INST.368, 301.655
ROCK_INST.369, 301.655
ROCK_INST.370, 301.655
ROCK_INST.371, 301.655
ROCK_INST.372, 301.655
ROCK_INST.373, 301.655
ROCK_INST.374, 301.655
ROCK_INST.375, 301.655
ROCK_INST.376, 302.489
ROCK_INST.377, 302.489
ROCK_INST.378, 302.489
ROCK_INST.379, 302.489
ROCK_INST.380, 302.489
ROCK_INST.381, 302.489
ROCK_INST.382, 302.489
ROCK_INST.383, 302.489
ROCK_INST.384, 302.489
ROCK_INST.385, 302.489
ROCK_INST.386, 302.489
ROCK_INST.387, 302.489
ROCK_INST.388, 302.489
ROCK_INST.389, 302.489
ROCK_INST.390, 302.489
ROCK_INST.391, 302.489
ROCK_INST.392, 302.489
ROCK_INST.393, 302.489
ROCK_INST.394, 302.489
ROCK_INST.395, 302.489
ROCK_INST.396, 302.489
ROCK_INST.397, 302.489
ROCK_INST.398, 302.489
ROCK_INST.399, 302.489
ROCK_INST.400, 302.489
ROCK_INST.401, 303.324
ROCK_INST.402, 303.324
ROCK_INST.403, 303.324
ROCK_INST.404, 303.324
ROCK_INST.405, 303.324
ROCK_INST.406, 303.324
ROCK_INST.407, 303.324
ROCK_INST.408, 303.324
ROCK_INST.409, 303.324
ROCK_INST.410, 303.324
ROCK_INST.411, 303.324
ROCK_INST.412, 303.324
ROCK_INST.413, 303.324
ROCK_INST.414, 303.324
ROCK_INST.415, 303.324
ROCK_INST.416, 303.324
ROCK_INST.417, 303.324
ROCK_INST.418, 303.324
ROCK_INST.419, 303.324
ROCK_INST.420, 303.324
ROCK_INST.421, 303.324
ROCK_INST.422, 303.324
ROCK_INST.423, 303.324
ROCK_INST.424, 303.324
ROCK_INST.425, 303.324
ROCK_INST.426, 304.158
ROCK_INST.427, 304.158
ROCK_INST.428, 304.158
ROCK_INST.429, 304.158
ROCK_INST.430, 304.158
ROCK_INST.431, 304.158
ROCK_INST.432, 304.158
ROCK_INST.433, 304.158
ROCK_INST.434, 304.158
ROCK_INST.435, 304.158
ROCK_INST.436, 304.158
ROCK_INST.437, 304.158
ROCK_INST.438, 304.158
ROCK_INST.439, 304.158
ROCK_INST.440, 304.158
ROCK_INST.441, 304.158
ROCK_INST.442, 304.158
ROCK_INST.443, 304.158
ROCK_INST.444, 304.158
ROCK_INST.445, 304.158
ROCK_INST.446, 304.158
ROCK_INST.447, 304.158
ROCK_INST.448, 304.158
ROCK_INST.449, 304.158
ROCK_INST.450, 304.158
ROCK_INST.451, 304.992
ROCK_INST.452, 304.992
ROCK_INST.453, 304.992
ROCK_INST.454, 304.992
ROCK_INST.455, 304.992
ROCK_INST.456, 304.992
ROCK_INST.457, 304.992
ROCK_INST.458, 304.992
ROCK_INST.459, 304.992
ROCK_INST.460, 304.992
ROCK_INST.461, 304.992
ROCK_INST.462, 304.992
ROCK_INST.463, 304.992
ROCK_INST.464, 304.992
ROCK_INST.465, 304.992
ROCK_INST.466, 304.992
ROCK_INST.467, 304.992
ROCK_INST.468, 304.992
ROCK_INST.469, 304.992
ROCK_INST.470, 304.992
ROCK_INST.471, 304.992
ROCK_INST.472, 304.992
ROCK_INST.473, 304.992
ROCK_INST.474, 304.992
ROCK_INST.475, 304.992
ROCK_INST.476, 305.826
ROCK_INST.477, 305.826
ROCK_INST.478, 305.826
ROCK_INST.479, 305.826
ROCK_INST.480, 305.826
ROCK_INST.481, 305.826
ROCK_INST.482, 305.826
ROCK_INST.483, 305.826
ROCK_INST.484, 305.826
ROCK_INST.485, 305.826
ROCK_INST.486, 305.826
ROCK_INST.487, 305.826
ROCK_INST.488, 305.826
ROCK_INST.489, 305.826
ROCK_INST.490, 305.826
ROCK_INST.491, 305.826
ROCK_INST.492, 305.826
ROCK_INST.493, 305.826
ROCK_INST.494, 305.826
ROCK_INST.495, 305.826
ROCK_INST.496, 305.826
ROCK_INST.497, 305.826
ROCK_INST.498, 305.826
ROCK_INST.499, 305.826
ROCK_INST.500, 305.826
ROCK_INST.501, 306.66
ROCK_INST.502, 306.66
ROCK_INST.503, 306.66
ROCK_INST.504, 306.66
ROCK_INST.505, 306.66
ROCK_INST.506, 306.66
ROCK_INST.507, 306.66
ROCK_INST.508, 306.66
ROCK_INST.509, 306.66
ROCK_INST.510, 306.66
ROCK_INST.511, 306.66
ROCK_INST.512, 306.66
ROCK_INST.513, 306.66
ROCK_INST.514, 306.66
ROCK_INST.515, 306.66
ROCK_INST.516, 306.66
ROCK_INST.517, 306.66
ROCK_INST.518, 306.66
ROCK_INST.519, 306.66
ROCK_INST.520, 306.66
ROCK_INST.521, 306.66
ROCK_INST.522, 306.66
ROCK_INST.523, 306.66
ROCK_INST.524, 306.66
ROCK_INST.525, 306.66
ROCK_INST.526, 307.494
ROCK_INST.527, 307.494
ROCK_INST.528, 307.494
ROCK_INST.529, 307.494
ROCK_INST.530, 307.494
ROCK_INST.531, 307.494
ROCK_INST.532, 307.494
ROCK_INST.533, 307.494
ROCK_INST.534, 307.494
ROCK_INST.535, 307.494
ROCK_INST.536, 307.494
ROCK_INST.537, 307.494
ROCK_INST.538, 307.494
ROCK_INST.539, 307.494
ROCK_INST.540, 307.494
ROCK_INST.541, 307.494
ROCK_INST.542, 307.494
ROCK_INST.543, 307.494
ROCK_INST.544, 307.494
ROCK_INST.545, 307.494
ROCK_INST.546, 307.494
ROCK_INST.547, 307.494
ROCK_INST.548, 307.494
ROCK_INST.549, 307.494
ROCK_INST.550, 307.494
ROCK_INST.551, 308.328
ROCK_INST.552, 308.328
ROCK_INST.553, 308.328
ROCK_INST.554, 308.328
ROCK_INST.555, 308.328
ROCK_INST.556, 308.328
ROCK_INST.557, 308.328
ROCK_INST.558, 308.328
ROCK_INST.559, 308.328
ROCK_INST.560, 308.328
ROCK_INST.561, 308.328
ROCK_INST.562, 308.328
ROCK_INST.563, 308.328
ROCK_INST.564, 308.328
ROCK_INST.565, 308.328
ROCK_INST.566, 308.328
ROCK_INST.567, 308.328
ROCK_INST.568, 308.328
ROCK_INST.569, 308.328
ROCK_INST.570, 308.328
ROCK_INST.571, 308.328
ROCK_INST.572, 308.328
ROCK_INST.573, 308.328
ROCK_INST.574, 308.328
ROCK_INST.575, 308.328
ROCK_INST.576, 309.163
ROCK_INST.577, 309.163
ROCK_INST.578, 309.163
ROCK_INST.579, 309.163
ROCK_INST.580, 309.163
ROCK_INST.581, 309.163
ROCK_INST.582, 309.163
ROCK_INST.583, 309.163
ROCK_INST.584, 309.163
ROCK_INST.585, 309.163
ROCK_INST.586, 309.163
ROCK_INST.587, 309.163
ROCK_INST.588, 309.163
ROCK_INST.589, 309.163
ROCK_INST.590, 309.163
ROCK_INST.591, 309.163
ROCK_INST.592, 309.163
ROCK_INST.593, 309.163
ROCK_INST.594, 309.163
ROCK_INST.595, 309.163
ROCK_INST.596, 309.163
ROCK_INST.597, 309.163
ROCK_INST.598, 309.163
ROCK_INST.599, 309.163
ROCK_INST.600, 309.163
** Name: NT_L1-I_OD   Type: Temperature Using Field: NT_L1-I
*Temperature
ROCK_INST.1, 289.977
ROCK_INST.26, 290.811
ROCK_INST.51, 291.645
ROCK_INST.76, 292.48
ROCK_INST.101, 293.314
ROCK_INST.126, 294.148
ROCK_INST.151, 294.982
ROCK_INST.176, 295.816
ROCK_INST.201, 296.65
ROCK_INST.226, 297.484
ROCK_INST.251, 298.319
ROCK_INST.276, 299.153
ROCK_INST.301, 299.987
ROCK_INST.326, 300.821
ROCK_INST.351, 301.655
ROCK_INST.376, 302.489
ROCK_INST.401, 303.324
ROCK_INST.426, 304.158
ROCK_INST.451, 304.992
ROCK_INST.476, 305.826
ROCK_INST.501, 306.66
ROCK_INST.526, 307.494
ROCK_INST.551, 308.328
ROCK_INST.576, 309.163
** 
** OUTPUT REQUESTS
** 
*Restart, write, frequency=0
** 
** FIELD OUTPUT: FASEI_REV
** 
*Output, field, time points=timePoint
*Node Output, nset=PIPE_INST.FASEI_REV
NT, U
*Element Output, elset=PIPE_INST.FASEI_REV, directions=YES
E, MISES, PE, S, PEEQ
** 
** FIELD OUTPUT: ROCK_OUTPUT
** 
*Node Output, nset=ROCK_OUTPUT
U, 
*Element Output, elset=ROCK_OUTPUT, directions=YES
TEMP, 
*Output, history, frequency=0
*End Step
** ----------------------------------------------------------------
** 
** STEP: Perf_10_375
** 
*Step, name=Perf_10_375, nlgeom=YES
*Static
1., 1., 1e-05, 1.
** 
** BOUNDARY CONDITIONS
** 
** Name: FIX_FASEI_WELL Type: Symmetry/Antisymmetry/Encastre
*Boundary, op=NEW
** Name: PIN_FASEI Type: Symmetry/Antisymmetry/Encastre
*Boundary, op=NEW
PIPE_INST.FASEI_REV, PINNED
** Name: XSYM_ROCK_BC Type: Symmetry/Antisymmetry/Encastre
*Boundary, op=NEW
ROCK_BC, XSYMM
** Name: YSYM_BASE Type: Symmetry/Antisymmetry/Encastre
*Boundary, op=NEW
YSYM_BASE, YSYMM
** Name: YSYM_TOP Type: Symmetry/Antisymmetry/Encastre
*Boundary, op=NEW
YSYM_TOP, YSYMM
** 
** LOADS
** 
** Name: P_FASEI_OPEN_WELL   Type: Pressure Using Field: P_FASEI_OPEN_WELL
*Dload
ROCK_INST.24, P2, 2.61739e+07
ROCK_INST.48, P2, 2.65649e+07
ROCK_INST.72, P2, 2.69558e+07
ROCK_INST.96, P2, 2.73468e+07
ROCK_INST.120, P2, 2.77378e+07
ROCK_INST.144, P2, 2.81288e+07
ROCK_INST.168, P2, 2.85198e+07
ROCK_INST.192, P2, 2.89107e+07
ROCK_INST.216, P2, 2.93017e+07
ROCK_INST.240, P2, 2.96927e+07
ROCK_INST.264, P2, 3.00837e+07
ROCK_INST.288, P2, 3.04747e+07
ROCK_INST.312, P2, 3.08656e+07
ROCK_INST.336, P2, 3.12566e+07
ROCK_INST.360, P2, 3.16476e+07
ROCK_INST.384, P2, 3.20386e+07
ROCK_INST.408, P2, 3.24296e+07
ROCK_INST.432, P2, 3.28205e+07
ROCK_INST.456, P2, 3.32115e+07
ROCK_INST.480, P2, 3.36025e+07
ROCK_INST.504, P2, 3.39935e+07
ROCK_INST.528, P2, 3.43844e+07
ROCK_INST.552, P2, 3.47754e+07
** 
** OUTPUT REQUESTS
** 
*Restart, write, frequency=0
** 
** FIELD OUTPUT: FASEI_REV
** 
*Output, field, time points=timePoint
*Node Output, nset=PIPE_INST.FASEI_REV
NT, U
*Element Output, elset=PIPE_INST.FASEI_REV, directions=YES
E, MISES, PE, S, PEEQ
** 
** FIELD OUTPUT: ROCK_OUTPUT
** 
*Node Output, nset=ROCK_OUTPUT
U, 
*Element Output, elset=ROCK_OUTPUT, directions=YES
TEMP, 
*Output, history, frequency=0
*End Step
** ----------------------------------------------------------------
** 
** STEP: Perf_10_375_Creep
** 
*Step, name=Perf_10_375_Creep, nlgeom=YES, inc=1000000
*Visco, cetol=0.01
1., 172800., 1e-15, 172800.
** 
** OUTPUT REQUESTS
** 
*Restart, write, frequency=0
** 
** FIELD OUTPUT: FASEI_REV
** 
*Output, field, time points=timePoint
*Node Output, nset=PIPE_INST.FASEI_REV
NT, U
*Element Output, elset=PIPE_INST.FASEI_REV, directions=YES
E, MISES, PE, S, PEEQ
** 
** FIELD OUTPUT: ROCK_OUTPUT
** 
*Node Output, nset=ROCK_OUTPUT
U, 
*Element Output, elset=ROCK_OUTPUT, directions=YES
TEMP, 
*Output, history, frequency=0
*End Step
** ----------------------------------------------------------------
** 
** STEP: Rev_9_875
** 
*Step, name=Rev_9_875, nlgeom=YES
*Static
1., 1., 1e-15, 1.
** 
** BOUNDARY CONDITIONS
** 
** Name: PIN_FASEI Type: Symmetry/Antisymmetry/Encastre
*Boundary, op=NEW
** Name: XSYM_ROCK_BC Type: Symmetry/Antisymmetry/Encastre
*Boundary, op=NEW
ROCK_BC, XSYMM
** Name: YSYM_BASE Type: Symmetry/Antisymmetry/Encastre
*Boundary, op=NEW
YSYM_BASE, YSYMM
** Name: YSYM_TOP Type: Symmetry/Antisymmetry/Encastre
*Boundary, op=NEW
YSYM_TOP, YSYMM
** 
** LOADS
** 
** Name: GRAVITY   Type: Gravity
*Dload, op=NEW
, GRAV, 9.81, , -1.
** Name: P_FASEI_COMPLETED_WELL   Type: Pressure Using Field: P_FASEI_COMPLETED_WELL
*Dload, op=NEW
PIPE_INST.3, P2, 2.61739e+07
PIPE_INST.6, P2, 2.65649e+07
PIPE_INST.9, P2, 2.69558e+07
PIPE_INST.12, P2, 2.73468e+07
PIPE_INST.15, P2, 2.77378e+07
PIPE_INST.18, P2, 2.81288e+07
PIPE_INST.21, P2, 2.85198e+07
PIPE_INST.24, P2, 2.89107e+07
PIPE_INST.27, P2, 2.93017e+07
PIPE_INST.30, P2, 2.96927e+07
PIPE_INST.33, P2, 3.00837e+07
PIPE_INST.36, P2, 3.04747e+07
PIPE_INST.39, P2, 3.08656e+07
PIPE_INST.42, P2, 3.12566e+07
PIPE_INST.45, P2, 3.16476e+07
PIPE_INST.48, P2, 3.20386e+07
PIPE_INST.51, P2, 3.24296e+07
PIPE_INST.54, P2, 3.28205e+07
PIPE_INST.57, P2, 3.32115e+07
PIPE_INST.60, P2, 3.36025e+07
PIPE_INST.63, P2, 3.39935e+07
PIPE_INST.66, P2, 3.43844e+07
PIPE_INST.69, P2, 3.47754e+07
** Name: P_FASEI_FLUID   Type: Pressure Using Field: P_FASEI_FLUID
*Dload, op=NEW
FLUID_INST.3, P2, -2.61739e+07
FLUID_INST.6, P2, -2.65649e+07
FLUID_INST.9, P2, -2.69558e+07
FLUID_INST.12, P2, -2.73468e+07
FLUID_INST.15, P2, -2.77378e+07
FLUID_INST.18, P2, -2.81288e+07
FLUID_INST.21, P2, -2.85198e+07
FLUID_INST.24, P2, -2.89107e+07
FLUID_INST.27, P2, -2.93017e+07
FLUID_INST.30, P2, -2.96927e+07
FLUID_INST.33, P2, -3.00837e+07
FLUID_INST.36, P2, -3.04747e+07
FLUID_INST.39, P2, -3.08656e+07
FLUID_INST.42, P2, -3.12566e+07
FLUID_INST.45, P2, -3.16476e+07
FLUID_INST.48, P2, -3.20386e+07
FLUID_INST.51, P2, -3.24296e+07
FLUID_INST.54, P2, -3.28205e+07
FLUID_INST.57, P2, -3.32115e+07
FLUID_INST.60, P2, -3.36025e+07
FLUID_INST.63, P2, -3.39935e+07
FLUID_INST.66, P2, -3.43844e+07
FLUID_INST.69, P2, -3.47754e+07
FLUID_INST.1, P4, -2.61739e+07
FLUID_INST.4, P4, -2.65649e+07
FLUID_INST.7, P4, -2.69558e+07
FLUID_INST.10, P4, -2.73468e+07
FLUID_INST.13, P4, -2.77378e+07
FLUID_INST.16, P4, -2.81288e+07
FLUID_INST.19, P4, -2.85198e+07
FLUID_INST.22, P4, -2.89107e+07
FLUID_INST.25, P4, -2.93017e+07
FLUID_INST.28, P4, -2.96927e+07
FLUID_INST.31, P4, -3.00837e+07
FLUID_INST.34, P4, -3.04747e+07
FLUID_INST.37, P4, -3.08656e+07
FLUID_INST.40, P4, -3.12566e+07
FLUID_INST.43, P4, -3.16476e+07
FLUID_INST.46, P4, -3.20386e+07
FLUID_INST.49, P4, -3.24296e+07
FLUID_INST.52, P4, -3.28205e+07
FLUID_INST.55, P4, -3.32115e+07
FLUID_INST.58, P4, -3.36025e+07
FLUID_INST.61, P4, -3.39935e+07
FLUID_INST.64, P4, -3.43844e+07
FLUID_INST.67, P4, -3.47754e+07
** Name: P_FASEI_OPEN_WELL   Type: Pressure Using Field: P_FASEI_OPEN_WELL
*Dload, op=NEW
** 
** INTERACTIONS
** 
** Interaction: C_FASEI
*Model Change, type=CONTACT PAIR, add
ROCK_INST_FASEI_SLAVE_CNS_, FASEI_MASTER
** Interaction: MC_FASEI_REV
*Model Change, add
PIPE_INST.FASEI_REV, 
** 
** OUTPUT REQUESTS
** 
*Restart, write, frequency=0
** 
** FIELD OUTPUT: FASEI_REV
** 
*Output, field, time points=timePoint
*Node Output, nset=PIPE_INST.FASEI_REV
NT, U
*Element Output, elset=PIPE_INST.FASEI_REV, directions=YES
E, MISES, PE, S, PEEQ
** 
** FIELD OUTPUT: ROCK_OUTPUT
** 
*Node Output, nset=ROCK_OUTPUT
U, 
*Element Output, elset=ROCK_OUTPUT, directions=YES
TEMP, 
*Output, history, frequency=0
*End Step
** ----------------------------------------------------------------
** 
** STEP: Rev_9_875_Creep
** 
*Step, name=Rev_9_875_Creep, nlgeom=YES, inc=1000000
*Visco, cetol=0.01
1., 9.4608e+08, 1e-15, 1.5552e+07
** 
** OUTPUT REQUESTS
** 
*Restart, write, frequency=0
** 
** FIELD OUTPUT: FASEI_REV
** 
*Output, field, time points=timePoint
*Node Output, nset=PIPE_INST.FASEI_REV
NT, U
*Element Output, elset=PIPE_INST.FASEI_REV, directions=YES
E, MISES, PE, S, PEEQ
** 
** FIELD OUTPUT: ROCK_OUTPUT
** 
*Node Output, nset=ROCK_OUTPUT
U, 
*Element Output, elset=ROCK_OUTPUT, directions=YES
TEMP, 
*Output, history, frequency=0
*End Step
